Minimize
 obj
Subject To
in0 + in1 + in2 + in3 + in4 + in5 + in6 + in7 + in8 + in9 + in10 + in11 + in12 + in13 + in14 + in15 + in16 + in17 + in18 + in19 + in20 + in21 + in22 + in23 + in24 + in25 + in26 + in27 + in28 + in29 + in30 + in31 + in32 + in33 + in34 + in35 + in36 + in37 + in38 + in39 + in40 + in41 + in42 + in43 + in44 + in45 + in46 + in47 + in48 + in49 + in50 + in51 + in52 + in53 + in54 + in55 + in56 + in57 + in58 + in59 + in60 + in61 + in62 + in63 >= 1
in0 - v_1_0_0 = 0
in1 - v_1_0_1 = 0
in2 - v_1_0_2 = 0
in3 - v_1_0_3 = 0
in4 - v_1_0_4 = 0
in5 - v_1_0_5 = 0
in6 - v_1_0_6 = 0
in7 - v_1_0_7 = 0
in8 - v_1_0_8 = 0
in9 - v_1_0_9 = 0
in10 - v_1_0_10 = 0
in11 - v_1_0_11 = 0
in12 - v_1_0_12 = 0
in13 - v_1_0_13 = 0
in14 - v_1_0_14 = 0
in15 - v_1_0_15 = 0
in16 - v_1_0_16 = 0
in17 - v_1_0_17 = 0
in18 - v_1_0_18 = 0
in19 - v_1_0_19 = 0
in20 - v_1_0_20 = 0
in21 - v_1_0_21 = 0
in22 - v_1_0_22 = 0
in23 - v_1_0_23 = 0
in24 - v_1_0_24 = 0
in25 - v_1_0_25 = 0
in26 - v_1_0_26 = 0
in27 - v_1_0_27 = 0
in28 - v_1_0_28 = 0
in29 - v_1_0_29 = 0
in30 - v_1_0_30 = 0
in31 - v_1_0_31 = 0
in32 - v_1_0_32 = 0
in33 - v_1_0_33 = 0
in34 - v_1_0_34 = 0
in35 - v_1_0_35 = 0
in36 - v_1_0_36 = 0
in37 - v_1_0_37 = 0
in38 - v_1_0_38 = 0
in39 - v_1_0_39 = 0
in40 - v_1_0_40 = 0
in41 - v_1_0_41 = 0
in42 - v_1_0_42 = 0
in43 - v_1_0_43 = 0
in44 - v_1_0_44 = 0
in45 - v_1_0_45 = 0
in46 - v_1_0_46 = 0
in47 - v_1_0_47 = 0
in48 - v_1_0_48 = 0
in49 - v_1_0_49 = 0
in50 - v_1_0_50 = 0
in51 - v_1_0_51 = 0
in52 - v_1_0_52 = 0
in53 - v_1_0_53 = 0
in54 - v_1_0_54 = 0
in55 - v_1_0_55 = 0
in56 - v_1_0_56 = 0
in57 - v_1_0_57 = 0
in58 - v_1_0_58 = 0
in59 - v_1_0_59 = 0
in60 - v_1_0_60 = 0
in61 - v_1_0_61 = 0
in62 - v_1_0_62 = 0
in63 - v_1_0_63 = 0
v_1_3_0 - out0 = 0
v_1_3_1 - out1 = 0
v_1_3_2 - out2 = 0
v_1_3_3 - out3 = 0
v_1_3_4 - out4 = 0
v_1_3_5 - out5 = 0
v_1_3_6 - out6 = 0
v_1_3_7 - out7 = 0
v_1_3_8 - out8 = 0
v_1_3_9 - out9 = 0
v_1_3_10 - out10 = 0
v_1_3_11 - out11 = 0
v_1_3_12 - out12 = 0
v_1_3_13 - out13 = 0
v_1_3_14 - out14 = 0
v_1_3_15 - out15 = 0
v_1_3_16 - out16 = 0
v_1_3_17 - out17 = 0
v_1_3_18 - out18 = 0
v_1_3_19 - out19 = 0
v_1_3_20 - out20 = 0
v_1_3_21 - out21 = 0
v_1_3_22 - out22 = 0
v_1_3_23 - out23 = 0
v_1_3_24 - out24 = 0
v_1_3_25 - out25 = 0
v_1_3_26 - out26 = 0
v_1_3_27 - out27 = 0
v_1_3_28 - out28 = 0
v_1_3_29 - out29 = 0
v_1_3_30 - out30 = 0
v_1_3_31 - out31 = 0
v_1_3_32 - out32 = 0
v_1_3_33 - out33 = 0
v_1_3_34 - out34 = 0
v_1_3_35 - out35 = 0
v_1_3_36 - out36 = 0
v_1_3_37 - out37 = 0
v_1_3_38 - out38 = 0
v_1_3_39 - out39 = 0
v_1_3_40 - out40 = 0
v_1_3_41 - out41 = 0
v_1_3_42 - out42 = 0
v_1_3_43 - out43 = 0
v_1_3_44 - out44 = 0
v_1_3_45 - out45 = 0
v_1_3_46 - out46 = 0
v_1_3_47 - out47 = 0
v_1_3_48 - out48 = 0
v_1_3_49 - out49 = 0
v_1_3_50 - out50 = 0
v_1_3_51 - out51 = 0
v_1_3_52 - out52 = 0
v_1_3_53 - out53 = 0
v_1_3_54 - out54 = 0
v_1_3_55 - out55 = 0
v_1_3_56 - out56 = 0
v_1_3_57 - out57 = 0
v_1_3_58 - out58 = 0
v_1_3_59 - out59 = 0
v_1_3_60 - out60 = 0
v_1_3_61 - out61 = 0
v_1_3_62 - out62 = 0
v_1_3_63 - out63 = 0
- v_1_0_1 + v_1_0_3 + v_1_1_0 + v_1_1_2 + SB_1_1_0_p1 >= 0
- v_1_0_0 + v_1_0_2 - v_1_1_0 + v_1_1_1 + v_1_1_2 - v_1_1_3 >= -2
v_1_0_1 - v_1_0_3 + SB_1_1_0_p0 >= 0
v_1_0_1 - v_1_0_2 + v_1_0_3 + v_1_1_0 + SB_1_1_0_p1 >= 0
- SB_1_1_0_p0 - SB_1_1_0_p2 >= -1
v_1_0_1 + v_1_0_2 - v_1_1_0 - v_1_1_1 - v_1_1_2 + v_1_1_3 >= -2
- v_1_0_0 + v_1_0_1 + v_1_1_0 + v_1_1_2 + v_1_1_3 >= 0
v_1_0_1 + v_1_0_3 + v_1_1_2 + v_1_1_3 - SB_1_1_0_p0 >= 0
- v_1_1_0 + v_1_1_3 + SB_1_1_0_p0 >= 0
- v_1_0_0 - v_1_0_1 + v_1_0_2 + v_1_0_3 - v_1_1_3 >= -2
- v_1_0_1 - v_1_0_3 + v_1_1_0 - v_1_1_2 - v_1_1_3 >= -3
- v_1_0_1 + v_1_0_3 + v_1_1_0 + v_1_1_3 + SB_1_1_0_p1 >= 0
v_1_0_0 - v_1_0_1 + v_1_0_2 - v_1_1_0 + v_1_1_1 - v_1_1_2 >= -2
v_1_0_0 + v_1_1_0 - v_1_1_1 + v_1_1_2 + v_1_1_3 >= 0
- v_1_0_0 + v_1_1_0 - v_1_1_1 + v_1_1_2 - v_1_1_3 >= -2
- v_1_0_3 + v_1_1_0 - v_1_1_2 + SB_1_1_0_p0 >= -1
- SB_1_1_0_p0 - SB_1_1_0_p1 >= -1
- v_1_0_0 - v_1_0_1 - v_1_0_2 - v_1_0_3 - v_1_1_0 + v_1_1_1 + v_1_1_3 >= -4
v_1_0_1 + v_1_0_3 - v_1_1_2 - v_1_1_3 + SB_1_1_0_p1 >= -1
- v_1_0_0 + v_1_0_1 - v_1_0_3 - v_1_1_0 - v_1_1_2 - v_1_1_3 >= -4
v_1_0_1 + v_1_0_2 + v_1_0_3 + v_1_1_2 - v_1_1_3 >= 0
- v_1_0_1 + v_1_1_0 - v_1_1_1 - v_1_1_2 + v_1_1_3 >= -2
v_1_0_0 + v_1_0_1 + v_1_0_2 - v_1_1_0 - v_1_1_1 + v_1_1_2 - v_1_1_3 >= -2
v_1_0_0 - v_1_0_1 - v_1_0_2 - v_1_1_0 - v_1_1_1 - v_1_1_3 >= -4
- v_1_0_0 - v_1_0_1 - v_1_0_3 + v_1_1_2 + v_1_1_3 + SB_1_1_0_p1 >= -2
- v_1_0_0 - v_1_0_2 - v_1_0_3 - v_1_1_1 + v_1_1_2 - v_1_1_3 >= -4
v_1_1_1 + v_1_1_2 + v_1_1_3 - SB_1_1_0_p1 >= 0
- v_1_0_3 + v_1_1_0 - v_1_1_3 + SB_1_1_0_p0 >= -1
v_1_0_2 + v_1_0_3 + v_1_1_0 - v_1_1_1 - SB_1_1_0_p0 >= -1
v_1_0_0 + v_1_0_3 - v_1_1_2 - v_1_1_3 + SB_1_1_0_p0 + SB_1_1_0_p2 >= -1
- v_1_1_0 + v_1_1_2 + SB_1_1_0_p0 >= 0
- v_1_0_0 - v_1_0_2 - v_1_1_2 - v_1_1_3 + SB_1_1_0_p0 >= -3
v_1_0_0 - v_1_0_3 + v_1_1_0 + v_1_1_1 + v_1_1_2 >= 0
- v_1_0_2 - v_1_1_1 + SB_1_1_0_p0 + SB_1_1_0_p1 >= -1
- v_1_0_0 - v_1_0_1 + v_1_0_2 - v_1_1_3 + SB_1_1_0_p0 >= -2
v_1_0_0 - v_1_0_1 + v_1_0_2 - v_1_0_3 + v_1_1_1 - v_1_1_3 >= -2
v_1_0_0 - v_1_0_1 - v_1_0_2 - v_1_0_3 - v_1_1_1 - v_1_1_2 >= -4
v_1_0_1 + v_1_1_0 + v_1_1_1 - v_1_1_2 + v_1_1_3 >= 0
- SB_1_1_0_p1 - SB_1_1_0_p2 >= -1
v_1_0_1 + v_1_0_2 + v_1_0_3 - v_1_1_2 + v_1_1_3 >= 0
v_1_0_0 - v_1_0_1 - v_1_1_0 - v_1_1_2 - v_1_1_3 + SB_1_1_0_p1 >= -3
v_1_0_2 + v_1_1_1 - SB_1_1_0_p2 >= 0
- v_1_0_0 - v_1_0_1 - v_1_0_2 + v_1_0_3 - v_1_1_2 >= -3
v_1_0_1 - v_1_0_2 - v_1_0_3 + v_1_1_1 - v_1_1_2 + v_1_1_3 >= -2
v_1_0_0 + v_1_0_1 - v_1_0_2 - v_1_0_3 + v_1_1_1 + v_1_1_2 - v_1_1_3 >= -2
v_1_0_0 - v_1_0_1 - v_1_0_2 + v_1_0_3 + v_1_1_2 >= -1
v_1_0_0 - v_1_0_1 + v_1_0_2 + v_1_0_3 + v_1_1_3 >= 0
v_1_0_0 + v_1_1_0 + v_1_1_1 + v_1_1_2 - v_1_1_3 >= 0
- v_1_0_0 - v_1_0_1 + v_1_0_2 - v_1_0_3 - v_1_1_0 - v_1_1_1 + v_1_1_3 >= -4
- v_1_0_2 + v_1_0_3 + v_1_1_0 + v_1_1_1 - SB_1_1_0_p0 >= -1
v_1_0_0 + v_1_0_1 + v_1_1_0 - v_1_1_2 - v_1_1_3 >= -1
- v_1_0_5 + v_1_0_7 + v_1_1_4 + v_1_1_6 + SB_1_1_1_p1 >= 0
- v_1_0_4 + v_1_0_6 - v_1_1_4 + v_1_1_5 + v_1_1_6 - v_1_1_7 >= -2
v_1_0_5 - v_1_0_7 + SB_1_1_1_p0 >= 0
v_1_0_5 - v_1_0_6 + v_1_0_7 + v_1_1_4 + SB_1_1_1_p1 >= 0
- SB_1_1_1_p0 - SB_1_1_1_p2 >= -1
v_1_0_5 + v_1_0_6 - v_1_1_4 - v_1_1_5 - v_1_1_6 + v_1_1_7 >= -2
- v_1_0_4 + v_1_0_5 + v_1_1_4 + v_1_1_6 + v_1_1_7 >= 0
v_1_0_5 + v_1_0_7 + v_1_1_6 + v_1_1_7 - SB_1_1_1_p0 >= 0
- v_1_1_4 + v_1_1_7 + SB_1_1_1_p0 >= 0
- v_1_0_4 - v_1_0_5 + v_1_0_6 + v_1_0_7 - v_1_1_7 >= -2
- v_1_0_5 - v_1_0_7 + v_1_1_4 - v_1_1_6 - v_1_1_7 >= -3
- v_1_0_5 + v_1_0_7 + v_1_1_4 + v_1_1_7 + SB_1_1_1_p1 >= 0
v_1_0_4 - v_1_0_5 + v_1_0_6 - v_1_1_4 + v_1_1_5 - v_1_1_6 >= -2
v_1_0_4 + v_1_1_4 - v_1_1_5 + v_1_1_6 + v_1_1_7 >= 0
- v_1_0_4 + v_1_1_4 - v_1_1_5 + v_1_1_6 - v_1_1_7 >= -2
- v_1_0_7 + v_1_1_4 - v_1_1_6 + SB_1_1_1_p0 >= -1
- SB_1_1_1_p0 - SB_1_1_1_p1 >= -1
- v_1_0_4 - v_1_0_5 - v_1_0_6 - v_1_0_7 - v_1_1_4 + v_1_1_5 + v_1_1_7 >= -4
v_1_0_5 + v_1_0_7 - v_1_1_6 - v_1_1_7 + SB_1_1_1_p1 >= -1
- v_1_0_4 + v_1_0_5 - v_1_0_7 - v_1_1_4 - v_1_1_6 - v_1_1_7 >= -4
v_1_0_5 + v_1_0_6 + v_1_0_7 + v_1_1_6 - v_1_1_7 >= 0
- v_1_0_5 + v_1_1_4 - v_1_1_5 - v_1_1_6 + v_1_1_7 >= -2
v_1_0_4 + v_1_0_5 + v_1_0_6 - v_1_1_4 - v_1_1_5 + v_1_1_6 - v_1_1_7 >= -2
v_1_0_4 - v_1_0_5 - v_1_0_6 - v_1_1_4 - v_1_1_5 - v_1_1_7 >= -4
- v_1_0_4 - v_1_0_5 - v_1_0_7 + v_1_1_6 + v_1_1_7 + SB_1_1_1_p1 >= -2
- v_1_0_4 - v_1_0_6 - v_1_0_7 - v_1_1_5 + v_1_1_6 - v_1_1_7 >= -4
v_1_1_5 + v_1_1_6 + v_1_1_7 - SB_1_1_1_p1 >= 0
- v_1_0_7 + v_1_1_4 - v_1_1_7 + SB_1_1_1_p0 >= -1
v_1_0_6 + v_1_0_7 + v_1_1_4 - v_1_1_5 - SB_1_1_1_p0 >= -1
v_1_0_4 + v_1_0_7 - v_1_1_6 - v_1_1_7 + SB_1_1_1_p0 + SB_1_1_1_p2 >= -1
- v_1_1_4 + v_1_1_6 + SB_1_1_1_p0 >= 0
- v_1_0_4 - v_1_0_6 - v_1_1_6 - v_1_1_7 + SB_1_1_1_p0 >= -3
v_1_0_4 - v_1_0_7 + v_1_1_4 + v_1_1_5 + v_1_1_6 >= 0
- v_1_0_6 - v_1_1_5 + SB_1_1_1_p0 + SB_1_1_1_p1 >= -1
- v_1_0_4 - v_1_0_5 + v_1_0_6 - v_1_1_7 + SB_1_1_1_p0 >= -2
v_1_0_4 - v_1_0_5 + v_1_0_6 - v_1_0_7 + v_1_1_5 - v_1_1_7 >= -2
v_1_0_4 - v_1_0_5 - v_1_0_6 - v_1_0_7 - v_1_1_5 - v_1_1_6 >= -4
v_1_0_5 + v_1_1_4 + v_1_1_5 - v_1_1_6 + v_1_1_7 >= 0
- SB_1_1_1_p1 - SB_1_1_1_p2 >= -1
v_1_0_5 + v_1_0_6 + v_1_0_7 - v_1_1_6 + v_1_1_7 >= 0
v_1_0_4 - v_1_0_5 - v_1_1_4 - v_1_1_6 - v_1_1_7 + SB_1_1_1_p1 >= -3
v_1_0_6 + v_1_1_5 - SB_1_1_1_p2 >= 0
- v_1_0_4 - v_1_0_5 - v_1_0_6 + v_1_0_7 - v_1_1_6 >= -3
v_1_0_5 - v_1_0_6 - v_1_0_7 + v_1_1_5 - v_1_1_6 + v_1_1_7 >= -2
v_1_0_4 + v_1_0_5 - v_1_0_6 - v_1_0_7 + v_1_1_5 + v_1_1_6 - v_1_1_7 >= -2
v_1_0_4 - v_1_0_5 - v_1_0_6 + v_1_0_7 + v_1_1_6 >= -1
v_1_0_4 - v_1_0_5 + v_1_0_6 + v_1_0_7 + v_1_1_7 >= 0
v_1_0_4 + v_1_1_4 + v_1_1_5 + v_1_1_6 - v_1_1_7 >= 0
- v_1_0_4 - v_1_0_5 + v_1_0_6 - v_1_0_7 - v_1_1_4 - v_1_1_5 + v_1_1_7 >= -4
- v_1_0_6 + v_1_0_7 + v_1_1_4 + v_1_1_5 - SB_1_1_1_p0 >= -1
v_1_0_4 + v_1_0_5 + v_1_1_4 - v_1_1_6 - v_1_1_7 >= -1
- v_1_0_9 + v_1_0_11 + v_1_1_8 + v_1_1_10 + SB_1_1_2_p1 >= 0
- v_1_0_8 + v_1_0_10 - v_1_1_8 + v_1_1_9 + v_1_1_10 - v_1_1_11 >= -2
v_1_0_9 - v_1_0_11 + SB_1_1_2_p0 >= 0
v_1_0_9 - v_1_0_10 + v_1_0_11 + v_1_1_8 + SB_1_1_2_p1 >= 0
- SB_1_1_2_p0 - SB_1_1_2_p2 >= -1
v_1_0_9 + v_1_0_10 - v_1_1_8 - v_1_1_9 - v_1_1_10 + v_1_1_11 >= -2
- v_1_0_8 + v_1_0_9 + v_1_1_8 + v_1_1_10 + v_1_1_11 >= 0
v_1_0_9 + v_1_0_11 + v_1_1_10 + v_1_1_11 - SB_1_1_2_p0 >= 0
- v_1_1_8 + v_1_1_11 + SB_1_1_2_p0 >= 0
- v_1_0_8 - v_1_0_9 + v_1_0_10 + v_1_0_11 - v_1_1_11 >= -2
- v_1_0_9 - v_1_0_11 + v_1_1_8 - v_1_1_10 - v_1_1_11 >= -3
- v_1_0_9 + v_1_0_11 + v_1_1_8 + v_1_1_11 + SB_1_1_2_p1 >= 0
v_1_0_8 - v_1_0_9 + v_1_0_10 - v_1_1_8 + v_1_1_9 - v_1_1_10 >= -2
v_1_0_8 + v_1_1_8 - v_1_1_9 + v_1_1_10 + v_1_1_11 >= 0
- v_1_0_8 + v_1_1_8 - v_1_1_9 + v_1_1_10 - v_1_1_11 >= -2
- v_1_0_11 + v_1_1_8 - v_1_1_10 + SB_1_1_2_p0 >= -1
- SB_1_1_2_p0 - SB_1_1_2_p1 >= -1
- v_1_0_8 - v_1_0_9 - v_1_0_10 - v_1_0_11 - v_1_1_8 + v_1_1_9 + v_1_1_11 >= -4
v_1_0_9 + v_1_0_11 - v_1_1_10 - v_1_1_11 + SB_1_1_2_p1 >= -1
- v_1_0_8 + v_1_0_9 - v_1_0_11 - v_1_1_8 - v_1_1_10 - v_1_1_11 >= -4
v_1_0_9 + v_1_0_10 + v_1_0_11 + v_1_1_10 - v_1_1_11 >= 0
- v_1_0_9 + v_1_1_8 - v_1_1_9 - v_1_1_10 + v_1_1_11 >= -2
v_1_0_8 + v_1_0_9 + v_1_0_10 - v_1_1_8 - v_1_1_9 + v_1_1_10 - v_1_1_11 >= -2
v_1_0_8 - v_1_0_9 - v_1_0_10 - v_1_1_8 - v_1_1_9 - v_1_1_11 >= -4
- v_1_0_8 - v_1_0_9 - v_1_0_11 + v_1_1_10 + v_1_1_11 + SB_1_1_2_p1 >= -2
- v_1_0_8 - v_1_0_10 - v_1_0_11 - v_1_1_9 + v_1_1_10 - v_1_1_11 >= -4
v_1_1_9 + v_1_1_10 + v_1_1_11 - SB_1_1_2_p1 >= 0
- v_1_0_11 + v_1_1_8 - v_1_1_11 + SB_1_1_2_p0 >= -1
v_1_0_10 + v_1_0_11 + v_1_1_8 - v_1_1_9 - SB_1_1_2_p0 >= -1
v_1_0_8 + v_1_0_11 - v_1_1_10 - v_1_1_11 + SB_1_1_2_p0 + SB_1_1_2_p2 >= -1
- v_1_1_8 + v_1_1_10 + SB_1_1_2_p0 >= 0
- v_1_0_8 - v_1_0_10 - v_1_1_10 - v_1_1_11 + SB_1_1_2_p0 >= -3
v_1_0_8 - v_1_0_11 + v_1_1_8 + v_1_1_9 + v_1_1_10 >= 0
- v_1_0_10 - v_1_1_9 + SB_1_1_2_p0 + SB_1_1_2_p1 >= -1
- v_1_0_8 - v_1_0_9 + v_1_0_10 - v_1_1_11 + SB_1_1_2_p0 >= -2
v_1_0_8 - v_1_0_9 + v_1_0_10 - v_1_0_11 + v_1_1_9 - v_1_1_11 >= -2
v_1_0_8 - v_1_0_9 - v_1_0_10 - v_1_0_11 - v_1_1_9 - v_1_1_10 >= -4
v_1_0_9 + v_1_1_8 + v_1_1_9 - v_1_1_10 + v_1_1_11 >= 0
- SB_1_1_2_p1 - SB_1_1_2_p2 >= -1
v_1_0_9 + v_1_0_10 + v_1_0_11 - v_1_1_10 + v_1_1_11 >= 0
v_1_0_8 - v_1_0_9 - v_1_1_8 - v_1_1_10 - v_1_1_11 + SB_1_1_2_p1 >= -3
v_1_0_10 + v_1_1_9 - SB_1_1_2_p2 >= 0
- v_1_0_8 - v_1_0_9 - v_1_0_10 + v_1_0_11 - v_1_1_10 >= -3
v_1_0_9 - v_1_0_10 - v_1_0_11 + v_1_1_9 - v_1_1_10 + v_1_1_11 >= -2
v_1_0_8 + v_1_0_9 - v_1_0_10 - v_1_0_11 + v_1_1_9 + v_1_1_10 - v_1_1_11 >= -2
v_1_0_8 - v_1_0_9 - v_1_0_10 + v_1_0_11 + v_1_1_10 >= -1
v_1_0_8 - v_1_0_9 + v_1_0_10 + v_1_0_11 + v_1_1_11 >= 0
v_1_0_8 + v_1_1_8 + v_1_1_9 + v_1_1_10 - v_1_1_11 >= 0
- v_1_0_8 - v_1_0_9 + v_1_0_10 - v_1_0_11 - v_1_1_8 - v_1_1_9 + v_1_1_11 >= -4
- v_1_0_10 + v_1_0_11 + v_1_1_8 + v_1_1_9 - SB_1_1_2_p0 >= -1
v_1_0_8 + v_1_0_9 + v_1_1_8 - v_1_1_10 - v_1_1_11 >= -1
- v_1_0_13 + v_1_0_15 + v_1_1_12 + v_1_1_14 + SB_1_1_3_p1 >= 0
- v_1_0_12 + v_1_0_14 - v_1_1_12 + v_1_1_13 + v_1_1_14 - v_1_1_15 >= -2
v_1_0_13 - v_1_0_15 + SB_1_1_3_p0 >= 0
v_1_0_13 - v_1_0_14 + v_1_0_15 + v_1_1_12 + SB_1_1_3_p1 >= 0
- SB_1_1_3_p0 - SB_1_1_3_p2 >= -1
v_1_0_13 + v_1_0_14 - v_1_1_12 - v_1_1_13 - v_1_1_14 + v_1_1_15 >= -2
- v_1_0_12 + v_1_0_13 + v_1_1_12 + v_1_1_14 + v_1_1_15 >= 0
v_1_0_13 + v_1_0_15 + v_1_1_14 + v_1_1_15 - SB_1_1_3_p0 >= 0
- v_1_1_12 + v_1_1_15 + SB_1_1_3_p0 >= 0
- v_1_0_12 - v_1_0_13 + v_1_0_14 + v_1_0_15 - v_1_1_15 >= -2
- v_1_0_13 - v_1_0_15 + v_1_1_12 - v_1_1_14 - v_1_1_15 >= -3
- v_1_0_13 + v_1_0_15 + v_1_1_12 + v_1_1_15 + SB_1_1_3_p1 >= 0
v_1_0_12 - v_1_0_13 + v_1_0_14 - v_1_1_12 + v_1_1_13 - v_1_1_14 >= -2
v_1_0_12 + v_1_1_12 - v_1_1_13 + v_1_1_14 + v_1_1_15 >= 0
- v_1_0_12 + v_1_1_12 - v_1_1_13 + v_1_1_14 - v_1_1_15 >= -2
- v_1_0_15 + v_1_1_12 - v_1_1_14 + SB_1_1_3_p0 >= -1
- SB_1_1_3_p0 - SB_1_1_3_p1 >= -1
- v_1_0_12 - v_1_0_13 - v_1_0_14 - v_1_0_15 - v_1_1_12 + v_1_1_13 + v_1_1_15 >= -4
v_1_0_13 + v_1_0_15 - v_1_1_14 - v_1_1_15 + SB_1_1_3_p1 >= -1
- v_1_0_12 + v_1_0_13 - v_1_0_15 - v_1_1_12 - v_1_1_14 - v_1_1_15 >= -4
v_1_0_13 + v_1_0_14 + v_1_0_15 + v_1_1_14 - v_1_1_15 >= 0
- v_1_0_13 + v_1_1_12 - v_1_1_13 - v_1_1_14 + v_1_1_15 >= -2
v_1_0_12 + v_1_0_13 + v_1_0_14 - v_1_1_12 - v_1_1_13 + v_1_1_14 - v_1_1_15 >= -2
v_1_0_12 - v_1_0_13 - v_1_0_14 - v_1_1_12 - v_1_1_13 - v_1_1_15 >= -4
- v_1_0_12 - v_1_0_13 - v_1_0_15 + v_1_1_14 + v_1_1_15 + SB_1_1_3_p1 >= -2
- v_1_0_12 - v_1_0_14 - v_1_0_15 - v_1_1_13 + v_1_1_14 - v_1_1_15 >= -4
v_1_1_13 + v_1_1_14 + v_1_1_15 - SB_1_1_3_p1 >= 0
- v_1_0_15 + v_1_1_12 - v_1_1_15 + SB_1_1_3_p0 >= -1
v_1_0_14 + v_1_0_15 + v_1_1_12 - v_1_1_13 - SB_1_1_3_p0 >= -1
v_1_0_12 + v_1_0_15 - v_1_1_14 - v_1_1_15 + SB_1_1_3_p0 + SB_1_1_3_p2 >= -1
- v_1_1_12 + v_1_1_14 + SB_1_1_3_p0 >= 0
- v_1_0_12 - v_1_0_14 - v_1_1_14 - v_1_1_15 + SB_1_1_3_p0 >= -3
v_1_0_12 - v_1_0_15 + v_1_1_12 + v_1_1_13 + v_1_1_14 >= 0
- v_1_0_14 - v_1_1_13 + SB_1_1_3_p0 + SB_1_1_3_p1 >= -1
- v_1_0_12 - v_1_0_13 + v_1_0_14 - v_1_1_15 + SB_1_1_3_p0 >= -2
v_1_0_12 - v_1_0_13 + v_1_0_14 - v_1_0_15 + v_1_1_13 - v_1_1_15 >= -2
v_1_0_12 - v_1_0_13 - v_1_0_14 - v_1_0_15 - v_1_1_13 - v_1_1_14 >= -4
v_1_0_13 + v_1_1_12 + v_1_1_13 - v_1_1_14 + v_1_1_15 >= 0
- SB_1_1_3_p1 - SB_1_1_3_p2 >= -1
v_1_0_13 + v_1_0_14 + v_1_0_15 - v_1_1_14 + v_1_1_15 >= 0
v_1_0_12 - v_1_0_13 - v_1_1_12 - v_1_1_14 - v_1_1_15 + SB_1_1_3_p1 >= -3
v_1_0_14 + v_1_1_13 - SB_1_1_3_p2 >= 0
- v_1_0_12 - v_1_0_13 - v_1_0_14 + v_1_0_15 - v_1_1_14 >= -3
v_1_0_13 - v_1_0_14 - v_1_0_15 + v_1_1_13 - v_1_1_14 + v_1_1_15 >= -2
v_1_0_12 + v_1_0_13 - v_1_0_14 - v_1_0_15 + v_1_1_13 + v_1_1_14 - v_1_1_15 >= -2
v_1_0_12 - v_1_0_13 - v_1_0_14 + v_1_0_15 + v_1_1_14 >= -1
v_1_0_12 - v_1_0_13 + v_1_0_14 + v_1_0_15 + v_1_1_15 >= 0
v_1_0_12 + v_1_1_12 + v_1_1_13 + v_1_1_14 - v_1_1_15 >= 0
- v_1_0_12 - v_1_0_13 + v_1_0_14 - v_1_0_15 - v_1_1_12 - v_1_1_13 + v_1_1_15 >= -4
- v_1_0_14 + v_1_0_15 + v_1_1_12 + v_1_1_13 - SB_1_1_3_p0 >= -1
v_1_0_12 + v_1_0_13 + v_1_1_12 - v_1_1_14 - v_1_1_15 >= -1
- v_1_0_17 + v_1_0_19 + v_1_1_16 + v_1_1_18 + SB_1_1_4_p1 >= 0
- v_1_0_16 + v_1_0_18 - v_1_1_16 + v_1_1_17 + v_1_1_18 - v_1_1_19 >= -2
v_1_0_17 - v_1_0_19 + SB_1_1_4_p0 >= 0
v_1_0_17 - v_1_0_18 + v_1_0_19 + v_1_1_16 + SB_1_1_4_p1 >= 0
- SB_1_1_4_p0 - SB_1_1_4_p2 >= -1
v_1_0_17 + v_1_0_18 - v_1_1_16 - v_1_1_17 - v_1_1_18 + v_1_1_19 >= -2
- v_1_0_16 + v_1_0_17 + v_1_1_16 + v_1_1_18 + v_1_1_19 >= 0
v_1_0_17 + v_1_0_19 + v_1_1_18 + v_1_1_19 - SB_1_1_4_p0 >= 0
- v_1_1_16 + v_1_1_19 + SB_1_1_4_p0 >= 0
- v_1_0_16 - v_1_0_17 + v_1_0_18 + v_1_0_19 - v_1_1_19 >= -2
- v_1_0_17 - v_1_0_19 + v_1_1_16 - v_1_1_18 - v_1_1_19 >= -3
- v_1_0_17 + v_1_0_19 + v_1_1_16 + v_1_1_19 + SB_1_1_4_p1 >= 0
v_1_0_16 - v_1_0_17 + v_1_0_18 - v_1_1_16 + v_1_1_17 - v_1_1_18 >= -2
v_1_0_16 + v_1_1_16 - v_1_1_17 + v_1_1_18 + v_1_1_19 >= 0
- v_1_0_16 + v_1_1_16 - v_1_1_17 + v_1_1_18 - v_1_1_19 >= -2
- v_1_0_19 + v_1_1_16 - v_1_1_18 + SB_1_1_4_p0 >= -1
- SB_1_1_4_p0 - SB_1_1_4_p1 >= -1
- v_1_0_16 - v_1_0_17 - v_1_0_18 - v_1_0_19 - v_1_1_16 + v_1_1_17 + v_1_1_19 >= -4
v_1_0_17 + v_1_0_19 - v_1_1_18 - v_1_1_19 + SB_1_1_4_p1 >= -1
- v_1_0_16 + v_1_0_17 - v_1_0_19 - v_1_1_16 - v_1_1_18 - v_1_1_19 >= -4
v_1_0_17 + v_1_0_18 + v_1_0_19 + v_1_1_18 - v_1_1_19 >= 0
- v_1_0_17 + v_1_1_16 - v_1_1_17 - v_1_1_18 + v_1_1_19 >= -2
v_1_0_16 + v_1_0_17 + v_1_0_18 - v_1_1_16 - v_1_1_17 + v_1_1_18 - v_1_1_19 >= -2
v_1_0_16 - v_1_0_17 - v_1_0_18 - v_1_1_16 - v_1_1_17 - v_1_1_19 >= -4
- v_1_0_16 - v_1_0_17 - v_1_0_19 + v_1_1_18 + v_1_1_19 + SB_1_1_4_p1 >= -2
- v_1_0_16 - v_1_0_18 - v_1_0_19 - v_1_1_17 + v_1_1_18 - v_1_1_19 >= -4
v_1_1_17 + v_1_1_18 + v_1_1_19 - SB_1_1_4_p1 >= 0
- v_1_0_19 + v_1_1_16 - v_1_1_19 + SB_1_1_4_p0 >= -1
v_1_0_18 + v_1_0_19 + v_1_1_16 - v_1_1_17 - SB_1_1_4_p0 >= -1
v_1_0_16 + v_1_0_19 - v_1_1_18 - v_1_1_19 + SB_1_1_4_p0 + SB_1_1_4_p2 >= -1
- v_1_1_16 + v_1_1_18 + SB_1_1_4_p0 >= 0
- v_1_0_16 - v_1_0_18 - v_1_1_18 - v_1_1_19 + SB_1_1_4_p0 >= -3
v_1_0_16 - v_1_0_19 + v_1_1_16 + v_1_1_17 + v_1_1_18 >= 0
- v_1_0_18 - v_1_1_17 + SB_1_1_4_p0 + SB_1_1_4_p1 >= -1
- v_1_0_16 - v_1_0_17 + v_1_0_18 - v_1_1_19 + SB_1_1_4_p0 >= -2
v_1_0_16 - v_1_0_17 + v_1_0_18 - v_1_0_19 + v_1_1_17 - v_1_1_19 >= -2
v_1_0_16 - v_1_0_17 - v_1_0_18 - v_1_0_19 - v_1_1_17 - v_1_1_18 >= -4
v_1_0_17 + v_1_1_16 + v_1_1_17 - v_1_1_18 + v_1_1_19 >= 0
- SB_1_1_4_p1 - SB_1_1_4_p2 >= -1
v_1_0_17 + v_1_0_18 + v_1_0_19 - v_1_1_18 + v_1_1_19 >= 0
v_1_0_16 - v_1_0_17 - v_1_1_16 - v_1_1_18 - v_1_1_19 + SB_1_1_4_p1 >= -3
v_1_0_18 + v_1_1_17 - SB_1_1_4_p2 >= 0
- v_1_0_16 - v_1_0_17 - v_1_0_18 + v_1_0_19 - v_1_1_18 >= -3
v_1_0_17 - v_1_0_18 - v_1_0_19 + v_1_1_17 - v_1_1_18 + v_1_1_19 >= -2
v_1_0_16 + v_1_0_17 - v_1_0_18 - v_1_0_19 + v_1_1_17 + v_1_1_18 - v_1_1_19 >= -2
v_1_0_16 - v_1_0_17 - v_1_0_18 + v_1_0_19 + v_1_1_18 >= -1
v_1_0_16 - v_1_0_17 + v_1_0_18 + v_1_0_19 + v_1_1_19 >= 0
v_1_0_16 + v_1_1_16 + v_1_1_17 + v_1_1_18 - v_1_1_19 >= 0
- v_1_0_16 - v_1_0_17 + v_1_0_18 - v_1_0_19 - v_1_1_16 - v_1_1_17 + v_1_1_19 >= -4
- v_1_0_18 + v_1_0_19 + v_1_1_16 + v_1_1_17 - SB_1_1_4_p0 >= -1
v_1_0_16 + v_1_0_17 + v_1_1_16 - v_1_1_18 - v_1_1_19 >= -1
- v_1_0_21 + v_1_0_23 + v_1_1_20 + v_1_1_22 + SB_1_1_5_p1 >= 0
- v_1_0_20 + v_1_0_22 - v_1_1_20 + v_1_1_21 + v_1_1_22 - v_1_1_23 >= -2
v_1_0_21 - v_1_0_23 + SB_1_1_5_p0 >= 0
v_1_0_21 - v_1_0_22 + v_1_0_23 + v_1_1_20 + SB_1_1_5_p1 >= 0
- SB_1_1_5_p0 - SB_1_1_5_p2 >= -1
v_1_0_21 + v_1_0_22 - v_1_1_20 - v_1_1_21 - v_1_1_22 + v_1_1_23 >= -2
- v_1_0_20 + v_1_0_21 + v_1_1_20 + v_1_1_22 + v_1_1_23 >= 0
v_1_0_21 + v_1_0_23 + v_1_1_22 + v_1_1_23 - SB_1_1_5_p0 >= 0
- v_1_1_20 + v_1_1_23 + SB_1_1_5_p0 >= 0
- v_1_0_20 - v_1_0_21 + v_1_0_22 + v_1_0_23 - v_1_1_23 >= -2
- v_1_0_21 - v_1_0_23 + v_1_1_20 - v_1_1_22 - v_1_1_23 >= -3
- v_1_0_21 + v_1_0_23 + v_1_1_20 + v_1_1_23 + SB_1_1_5_p1 >= 0
v_1_0_20 - v_1_0_21 + v_1_0_22 - v_1_1_20 + v_1_1_21 - v_1_1_22 >= -2
v_1_0_20 + v_1_1_20 - v_1_1_21 + v_1_1_22 + v_1_1_23 >= 0
- v_1_0_20 + v_1_1_20 - v_1_1_21 + v_1_1_22 - v_1_1_23 >= -2
- v_1_0_23 + v_1_1_20 - v_1_1_22 + SB_1_1_5_p0 >= -1
- SB_1_1_5_p0 - SB_1_1_5_p1 >= -1
- v_1_0_20 - v_1_0_21 - v_1_0_22 - v_1_0_23 - v_1_1_20 + v_1_1_21 + v_1_1_23 >= -4
v_1_0_21 + v_1_0_23 - v_1_1_22 - v_1_1_23 + SB_1_1_5_p1 >= -1
- v_1_0_20 + v_1_0_21 - v_1_0_23 - v_1_1_20 - v_1_1_22 - v_1_1_23 >= -4
v_1_0_21 + v_1_0_22 + v_1_0_23 + v_1_1_22 - v_1_1_23 >= 0
- v_1_0_21 + v_1_1_20 - v_1_1_21 - v_1_1_22 + v_1_1_23 >= -2
v_1_0_20 + v_1_0_21 + v_1_0_22 - v_1_1_20 - v_1_1_21 + v_1_1_22 - v_1_1_23 >= -2
v_1_0_20 - v_1_0_21 - v_1_0_22 - v_1_1_20 - v_1_1_21 - v_1_1_23 >= -4
- v_1_0_20 - v_1_0_21 - v_1_0_23 + v_1_1_22 + v_1_1_23 + SB_1_1_5_p1 >= -2
- v_1_0_20 - v_1_0_22 - v_1_0_23 - v_1_1_21 + v_1_1_22 - v_1_1_23 >= -4
v_1_1_21 + v_1_1_22 + v_1_1_23 - SB_1_1_5_p1 >= 0
- v_1_0_23 + v_1_1_20 - v_1_1_23 + SB_1_1_5_p0 >= -1
v_1_0_22 + v_1_0_23 + v_1_1_20 - v_1_1_21 - SB_1_1_5_p0 >= -1
v_1_0_20 + v_1_0_23 - v_1_1_22 - v_1_1_23 + SB_1_1_5_p0 + SB_1_1_5_p2 >= -1
- v_1_1_20 + v_1_1_22 + SB_1_1_5_p0 >= 0
- v_1_0_20 - v_1_0_22 - v_1_1_22 - v_1_1_23 + SB_1_1_5_p0 >= -3
v_1_0_20 - v_1_0_23 + v_1_1_20 + v_1_1_21 + v_1_1_22 >= 0
- v_1_0_22 - v_1_1_21 + SB_1_1_5_p0 + SB_1_1_5_p1 >= -1
- v_1_0_20 - v_1_0_21 + v_1_0_22 - v_1_1_23 + SB_1_1_5_p0 >= -2
v_1_0_20 - v_1_0_21 + v_1_0_22 - v_1_0_23 + v_1_1_21 - v_1_1_23 >= -2
v_1_0_20 - v_1_0_21 - v_1_0_22 - v_1_0_23 - v_1_1_21 - v_1_1_22 >= -4
v_1_0_21 + v_1_1_20 + v_1_1_21 - v_1_1_22 + v_1_1_23 >= 0
- SB_1_1_5_p1 - SB_1_1_5_p2 >= -1
v_1_0_21 + v_1_0_22 + v_1_0_23 - v_1_1_22 + v_1_1_23 >= 0
v_1_0_20 - v_1_0_21 - v_1_1_20 - v_1_1_22 - v_1_1_23 + SB_1_1_5_p1 >= -3
v_1_0_22 + v_1_1_21 - SB_1_1_5_p2 >= 0
- v_1_0_20 - v_1_0_21 - v_1_0_22 + v_1_0_23 - v_1_1_22 >= -3
v_1_0_21 - v_1_0_22 - v_1_0_23 + v_1_1_21 - v_1_1_22 + v_1_1_23 >= -2
v_1_0_20 + v_1_0_21 - v_1_0_22 - v_1_0_23 + v_1_1_21 + v_1_1_22 - v_1_1_23 >= -2
v_1_0_20 - v_1_0_21 - v_1_0_22 + v_1_0_23 + v_1_1_22 >= -1
v_1_0_20 - v_1_0_21 + v_1_0_22 + v_1_0_23 + v_1_1_23 >= 0
v_1_0_20 + v_1_1_20 + v_1_1_21 + v_1_1_22 - v_1_1_23 >= 0
- v_1_0_20 - v_1_0_21 + v_1_0_22 - v_1_0_23 - v_1_1_20 - v_1_1_21 + v_1_1_23 >= -4
- v_1_0_22 + v_1_0_23 + v_1_1_20 + v_1_1_21 - SB_1_1_5_p0 >= -1
v_1_0_20 + v_1_0_21 + v_1_1_20 - v_1_1_22 - v_1_1_23 >= -1
- v_1_0_25 + v_1_0_27 + v_1_1_24 + v_1_1_26 + SB_1_1_6_p1 >= 0
- v_1_0_24 + v_1_0_26 - v_1_1_24 + v_1_1_25 + v_1_1_26 - v_1_1_27 >= -2
v_1_0_25 - v_1_0_27 + SB_1_1_6_p0 >= 0
v_1_0_25 - v_1_0_26 + v_1_0_27 + v_1_1_24 + SB_1_1_6_p1 >= 0
- SB_1_1_6_p0 - SB_1_1_6_p2 >= -1
v_1_0_25 + v_1_0_26 - v_1_1_24 - v_1_1_25 - v_1_1_26 + v_1_1_27 >= -2
- v_1_0_24 + v_1_0_25 + v_1_1_24 + v_1_1_26 + v_1_1_27 >= 0
v_1_0_25 + v_1_0_27 + v_1_1_26 + v_1_1_27 - SB_1_1_6_p0 >= 0
- v_1_1_24 + v_1_1_27 + SB_1_1_6_p0 >= 0
- v_1_0_24 - v_1_0_25 + v_1_0_26 + v_1_0_27 - v_1_1_27 >= -2
- v_1_0_25 - v_1_0_27 + v_1_1_24 - v_1_1_26 - v_1_1_27 >= -3
- v_1_0_25 + v_1_0_27 + v_1_1_24 + v_1_1_27 + SB_1_1_6_p1 >= 0
v_1_0_24 - v_1_0_25 + v_1_0_26 - v_1_1_24 + v_1_1_25 - v_1_1_26 >= -2
v_1_0_24 + v_1_1_24 - v_1_1_25 + v_1_1_26 + v_1_1_27 >= 0
- v_1_0_24 + v_1_1_24 - v_1_1_25 + v_1_1_26 - v_1_1_27 >= -2
- v_1_0_27 + v_1_1_24 - v_1_1_26 + SB_1_1_6_p0 >= -1
- SB_1_1_6_p0 - SB_1_1_6_p1 >= -1
- v_1_0_24 - v_1_0_25 - v_1_0_26 - v_1_0_27 - v_1_1_24 + v_1_1_25 + v_1_1_27 >= -4
v_1_0_25 + v_1_0_27 - v_1_1_26 - v_1_1_27 + SB_1_1_6_p1 >= -1
- v_1_0_24 + v_1_0_25 - v_1_0_27 - v_1_1_24 - v_1_1_26 - v_1_1_27 >= -4
v_1_0_25 + v_1_0_26 + v_1_0_27 + v_1_1_26 - v_1_1_27 >= 0
- v_1_0_25 + v_1_1_24 - v_1_1_25 - v_1_1_26 + v_1_1_27 >= -2
v_1_0_24 + v_1_0_25 + v_1_0_26 - v_1_1_24 - v_1_1_25 + v_1_1_26 - v_1_1_27 >= -2
v_1_0_24 - v_1_0_25 - v_1_0_26 - v_1_1_24 - v_1_1_25 - v_1_1_27 >= -4
- v_1_0_24 - v_1_0_25 - v_1_0_27 + v_1_1_26 + v_1_1_27 + SB_1_1_6_p1 >= -2
- v_1_0_24 - v_1_0_26 - v_1_0_27 - v_1_1_25 + v_1_1_26 - v_1_1_27 >= -4
v_1_1_25 + v_1_1_26 + v_1_1_27 - SB_1_1_6_p1 >= 0
- v_1_0_27 + v_1_1_24 - v_1_1_27 + SB_1_1_6_p0 >= -1
v_1_0_26 + v_1_0_27 + v_1_1_24 - v_1_1_25 - SB_1_1_6_p0 >= -1
v_1_0_24 + v_1_0_27 - v_1_1_26 - v_1_1_27 + SB_1_1_6_p0 + SB_1_1_6_p2 >= -1
- v_1_1_24 + v_1_1_26 + SB_1_1_6_p0 >= 0
- v_1_0_24 - v_1_0_26 - v_1_1_26 - v_1_1_27 + SB_1_1_6_p0 >= -3
v_1_0_24 - v_1_0_27 + v_1_1_24 + v_1_1_25 + v_1_1_26 >= 0
- v_1_0_26 - v_1_1_25 + SB_1_1_6_p0 + SB_1_1_6_p1 >= -1
- v_1_0_24 - v_1_0_25 + v_1_0_26 - v_1_1_27 + SB_1_1_6_p0 >= -2
v_1_0_24 - v_1_0_25 + v_1_0_26 - v_1_0_27 + v_1_1_25 - v_1_1_27 >= -2
v_1_0_24 - v_1_0_25 - v_1_0_26 - v_1_0_27 - v_1_1_25 - v_1_1_26 >= -4
v_1_0_25 + v_1_1_24 + v_1_1_25 - v_1_1_26 + v_1_1_27 >= 0
- SB_1_1_6_p1 - SB_1_1_6_p2 >= -1
v_1_0_25 + v_1_0_26 + v_1_0_27 - v_1_1_26 + v_1_1_27 >= 0
v_1_0_24 - v_1_0_25 - v_1_1_24 - v_1_1_26 - v_1_1_27 + SB_1_1_6_p1 >= -3
v_1_0_26 + v_1_1_25 - SB_1_1_6_p2 >= 0
- v_1_0_24 - v_1_0_25 - v_1_0_26 + v_1_0_27 - v_1_1_26 >= -3
v_1_0_25 - v_1_0_26 - v_1_0_27 + v_1_1_25 - v_1_1_26 + v_1_1_27 >= -2
v_1_0_24 + v_1_0_25 - v_1_0_26 - v_1_0_27 + v_1_1_25 + v_1_1_26 - v_1_1_27 >= -2
v_1_0_24 - v_1_0_25 - v_1_0_26 + v_1_0_27 + v_1_1_26 >= -1
v_1_0_24 - v_1_0_25 + v_1_0_26 + v_1_0_27 + v_1_1_27 >= 0
v_1_0_24 + v_1_1_24 + v_1_1_25 + v_1_1_26 - v_1_1_27 >= 0
- v_1_0_24 - v_1_0_25 + v_1_0_26 - v_1_0_27 - v_1_1_24 - v_1_1_25 + v_1_1_27 >= -4
- v_1_0_26 + v_1_0_27 + v_1_1_24 + v_1_1_25 - SB_1_1_6_p0 >= -1
v_1_0_24 + v_1_0_25 + v_1_1_24 - v_1_1_26 - v_1_1_27 >= -1
- v_1_0_29 + v_1_0_31 + v_1_1_28 + v_1_1_30 + SB_1_1_7_p1 >= 0
- v_1_0_28 + v_1_0_30 - v_1_1_28 + v_1_1_29 + v_1_1_30 - v_1_1_31 >= -2
v_1_0_29 - v_1_0_31 + SB_1_1_7_p0 >= 0
v_1_0_29 - v_1_0_30 + v_1_0_31 + v_1_1_28 + SB_1_1_7_p1 >= 0
- SB_1_1_7_p0 - SB_1_1_7_p2 >= -1
v_1_0_29 + v_1_0_30 - v_1_1_28 - v_1_1_29 - v_1_1_30 + v_1_1_31 >= -2
- v_1_0_28 + v_1_0_29 + v_1_1_28 + v_1_1_30 + v_1_1_31 >= 0
v_1_0_29 + v_1_0_31 + v_1_1_30 + v_1_1_31 - SB_1_1_7_p0 >= 0
- v_1_1_28 + v_1_1_31 + SB_1_1_7_p0 >= 0
- v_1_0_28 - v_1_0_29 + v_1_0_30 + v_1_0_31 - v_1_1_31 >= -2
- v_1_0_29 - v_1_0_31 + v_1_1_28 - v_1_1_30 - v_1_1_31 >= -3
- v_1_0_29 + v_1_0_31 + v_1_1_28 + v_1_1_31 + SB_1_1_7_p1 >= 0
v_1_0_28 - v_1_0_29 + v_1_0_30 - v_1_1_28 + v_1_1_29 - v_1_1_30 >= -2
v_1_0_28 + v_1_1_28 - v_1_1_29 + v_1_1_30 + v_1_1_31 >= 0
- v_1_0_28 + v_1_1_28 - v_1_1_29 + v_1_1_30 - v_1_1_31 >= -2
- v_1_0_31 + v_1_1_28 - v_1_1_30 + SB_1_1_7_p0 >= -1
- SB_1_1_7_p0 - SB_1_1_7_p1 >= -1
- v_1_0_28 - v_1_0_29 - v_1_0_30 - v_1_0_31 - v_1_1_28 + v_1_1_29 + v_1_1_31 >= -4
v_1_0_29 + v_1_0_31 - v_1_1_30 - v_1_1_31 + SB_1_1_7_p1 >= -1
- v_1_0_28 + v_1_0_29 - v_1_0_31 - v_1_1_28 - v_1_1_30 - v_1_1_31 >= -4
v_1_0_29 + v_1_0_30 + v_1_0_31 + v_1_1_30 - v_1_1_31 >= 0
- v_1_0_29 + v_1_1_28 - v_1_1_29 - v_1_1_30 + v_1_1_31 >= -2
v_1_0_28 + v_1_0_29 + v_1_0_30 - v_1_1_28 - v_1_1_29 + v_1_1_30 - v_1_1_31 >= -2
v_1_0_28 - v_1_0_29 - v_1_0_30 - v_1_1_28 - v_1_1_29 - v_1_1_31 >= -4
- v_1_0_28 - v_1_0_29 - v_1_0_31 + v_1_1_30 + v_1_1_31 + SB_1_1_7_p1 >= -2
- v_1_0_28 - v_1_0_30 - v_1_0_31 - v_1_1_29 + v_1_1_30 - v_1_1_31 >= -4
v_1_1_29 + v_1_1_30 + v_1_1_31 - SB_1_1_7_p1 >= 0
- v_1_0_31 + v_1_1_28 - v_1_1_31 + SB_1_1_7_p0 >= -1
v_1_0_30 + v_1_0_31 + v_1_1_28 - v_1_1_29 - SB_1_1_7_p0 >= -1
v_1_0_28 + v_1_0_31 - v_1_1_30 - v_1_1_31 + SB_1_1_7_p0 + SB_1_1_7_p2 >= -1
- v_1_1_28 + v_1_1_30 + SB_1_1_7_p0 >= 0
- v_1_0_28 - v_1_0_30 - v_1_1_30 - v_1_1_31 + SB_1_1_7_p0 >= -3
v_1_0_28 - v_1_0_31 + v_1_1_28 + v_1_1_29 + v_1_1_30 >= 0
- v_1_0_30 - v_1_1_29 + SB_1_1_7_p0 + SB_1_1_7_p1 >= -1
- v_1_0_28 - v_1_0_29 + v_1_0_30 - v_1_1_31 + SB_1_1_7_p0 >= -2
v_1_0_28 - v_1_0_29 + v_1_0_30 - v_1_0_31 + v_1_1_29 - v_1_1_31 >= -2
v_1_0_28 - v_1_0_29 - v_1_0_30 - v_1_0_31 - v_1_1_29 - v_1_1_30 >= -4
v_1_0_29 + v_1_1_28 + v_1_1_29 - v_1_1_30 + v_1_1_31 >= 0
- SB_1_1_7_p1 - SB_1_1_7_p2 >= -1
v_1_0_29 + v_1_0_30 + v_1_0_31 - v_1_1_30 + v_1_1_31 >= 0
v_1_0_28 - v_1_0_29 - v_1_1_28 - v_1_1_30 - v_1_1_31 + SB_1_1_7_p1 >= -3
v_1_0_30 + v_1_1_29 - SB_1_1_7_p2 >= 0
- v_1_0_28 - v_1_0_29 - v_1_0_30 + v_1_0_31 - v_1_1_30 >= -3
v_1_0_29 - v_1_0_30 - v_1_0_31 + v_1_1_29 - v_1_1_30 + v_1_1_31 >= -2
v_1_0_28 + v_1_0_29 - v_1_0_30 - v_1_0_31 + v_1_1_29 + v_1_1_30 - v_1_1_31 >= -2
v_1_0_28 - v_1_0_29 - v_1_0_30 + v_1_0_31 + v_1_1_30 >= -1
v_1_0_28 - v_1_0_29 + v_1_0_30 + v_1_0_31 + v_1_1_31 >= 0
v_1_0_28 + v_1_1_28 + v_1_1_29 + v_1_1_30 - v_1_1_31 >= 0
- v_1_0_28 - v_1_0_29 + v_1_0_30 - v_1_0_31 - v_1_1_28 - v_1_1_29 + v_1_1_31 >= -4
- v_1_0_30 + v_1_0_31 + v_1_1_28 + v_1_1_29 - SB_1_1_7_p0 >= -1
v_1_0_28 + v_1_0_29 + v_1_1_28 - v_1_1_30 - v_1_1_31 >= -1
- v_1_0_33 + v_1_0_35 + v_1_1_32 + v_1_1_34 + SB_1_1_8_p1 >= 0
- v_1_0_32 + v_1_0_34 - v_1_1_32 + v_1_1_33 + v_1_1_34 - v_1_1_35 >= -2
v_1_0_33 - v_1_0_35 + SB_1_1_8_p0 >= 0
v_1_0_33 - v_1_0_34 + v_1_0_35 + v_1_1_32 + SB_1_1_8_p1 >= 0
- SB_1_1_8_p0 - SB_1_1_8_p2 >= -1
v_1_0_33 + v_1_0_34 - v_1_1_32 - v_1_1_33 - v_1_1_34 + v_1_1_35 >= -2
- v_1_0_32 + v_1_0_33 + v_1_1_32 + v_1_1_34 + v_1_1_35 >= 0
v_1_0_33 + v_1_0_35 + v_1_1_34 + v_1_1_35 - SB_1_1_8_p0 >= 0
- v_1_1_32 + v_1_1_35 + SB_1_1_8_p0 >= 0
- v_1_0_32 - v_1_0_33 + v_1_0_34 + v_1_0_35 - v_1_1_35 >= -2
- v_1_0_33 - v_1_0_35 + v_1_1_32 - v_1_1_34 - v_1_1_35 >= -3
- v_1_0_33 + v_1_0_35 + v_1_1_32 + v_1_1_35 + SB_1_1_8_p1 >= 0
v_1_0_32 - v_1_0_33 + v_1_0_34 - v_1_1_32 + v_1_1_33 - v_1_1_34 >= -2
v_1_0_32 + v_1_1_32 - v_1_1_33 + v_1_1_34 + v_1_1_35 >= 0
- v_1_0_32 + v_1_1_32 - v_1_1_33 + v_1_1_34 - v_1_1_35 >= -2
- v_1_0_35 + v_1_1_32 - v_1_1_34 + SB_1_1_8_p0 >= -1
- SB_1_1_8_p0 - SB_1_1_8_p1 >= -1
- v_1_0_32 - v_1_0_33 - v_1_0_34 - v_1_0_35 - v_1_1_32 + v_1_1_33 + v_1_1_35 >= -4
v_1_0_33 + v_1_0_35 - v_1_1_34 - v_1_1_35 + SB_1_1_8_p1 >= -1
- v_1_0_32 + v_1_0_33 - v_1_0_35 - v_1_1_32 - v_1_1_34 - v_1_1_35 >= -4
v_1_0_33 + v_1_0_34 + v_1_0_35 + v_1_1_34 - v_1_1_35 >= 0
- v_1_0_33 + v_1_1_32 - v_1_1_33 - v_1_1_34 + v_1_1_35 >= -2
v_1_0_32 + v_1_0_33 + v_1_0_34 - v_1_1_32 - v_1_1_33 + v_1_1_34 - v_1_1_35 >= -2
v_1_0_32 - v_1_0_33 - v_1_0_34 - v_1_1_32 - v_1_1_33 - v_1_1_35 >= -4
- v_1_0_32 - v_1_0_33 - v_1_0_35 + v_1_1_34 + v_1_1_35 + SB_1_1_8_p1 >= -2
- v_1_0_32 - v_1_0_34 - v_1_0_35 - v_1_1_33 + v_1_1_34 - v_1_1_35 >= -4
v_1_1_33 + v_1_1_34 + v_1_1_35 - SB_1_1_8_p1 >= 0
- v_1_0_35 + v_1_1_32 - v_1_1_35 + SB_1_1_8_p0 >= -1
v_1_0_34 + v_1_0_35 + v_1_1_32 - v_1_1_33 - SB_1_1_8_p0 >= -1
v_1_0_32 + v_1_0_35 - v_1_1_34 - v_1_1_35 + SB_1_1_8_p0 + SB_1_1_8_p2 >= -1
- v_1_1_32 + v_1_1_34 + SB_1_1_8_p0 >= 0
- v_1_0_32 - v_1_0_34 - v_1_1_34 - v_1_1_35 + SB_1_1_8_p0 >= -3
v_1_0_32 - v_1_0_35 + v_1_1_32 + v_1_1_33 + v_1_1_34 >= 0
- v_1_0_34 - v_1_1_33 + SB_1_1_8_p0 + SB_1_1_8_p1 >= -1
- v_1_0_32 - v_1_0_33 + v_1_0_34 - v_1_1_35 + SB_1_1_8_p0 >= -2
v_1_0_32 - v_1_0_33 + v_1_0_34 - v_1_0_35 + v_1_1_33 - v_1_1_35 >= -2
v_1_0_32 - v_1_0_33 - v_1_0_34 - v_1_0_35 - v_1_1_33 - v_1_1_34 >= -4
v_1_0_33 + v_1_1_32 + v_1_1_33 - v_1_1_34 + v_1_1_35 >= 0
- SB_1_1_8_p1 - SB_1_1_8_p2 >= -1
v_1_0_33 + v_1_0_34 + v_1_0_35 - v_1_1_34 + v_1_1_35 >= 0
v_1_0_32 - v_1_0_33 - v_1_1_32 - v_1_1_34 - v_1_1_35 + SB_1_1_8_p1 >= -3
v_1_0_34 + v_1_1_33 - SB_1_1_8_p2 >= 0
- v_1_0_32 - v_1_0_33 - v_1_0_34 + v_1_0_35 - v_1_1_34 >= -3
v_1_0_33 - v_1_0_34 - v_1_0_35 + v_1_1_33 - v_1_1_34 + v_1_1_35 >= -2
v_1_0_32 + v_1_0_33 - v_1_0_34 - v_1_0_35 + v_1_1_33 + v_1_1_34 - v_1_1_35 >= -2
v_1_0_32 - v_1_0_33 - v_1_0_34 + v_1_0_35 + v_1_1_34 >= -1
v_1_0_32 - v_1_0_33 + v_1_0_34 + v_1_0_35 + v_1_1_35 >= 0
v_1_0_32 + v_1_1_32 + v_1_1_33 + v_1_1_34 - v_1_1_35 >= 0
- v_1_0_32 - v_1_0_33 + v_1_0_34 - v_1_0_35 - v_1_1_32 - v_1_1_33 + v_1_1_35 >= -4
- v_1_0_34 + v_1_0_35 + v_1_1_32 + v_1_1_33 - SB_1_1_8_p0 >= -1
v_1_0_32 + v_1_0_33 + v_1_1_32 - v_1_1_34 - v_1_1_35 >= -1
- v_1_0_37 + v_1_0_39 + v_1_1_36 + v_1_1_38 + SB_1_1_9_p1 >= 0
- v_1_0_36 + v_1_0_38 - v_1_1_36 + v_1_1_37 + v_1_1_38 - v_1_1_39 >= -2
v_1_0_37 - v_1_0_39 + SB_1_1_9_p0 >= 0
v_1_0_37 - v_1_0_38 + v_1_0_39 + v_1_1_36 + SB_1_1_9_p1 >= 0
- SB_1_1_9_p0 - SB_1_1_9_p2 >= -1
v_1_0_37 + v_1_0_38 - v_1_1_36 - v_1_1_37 - v_1_1_38 + v_1_1_39 >= -2
- v_1_0_36 + v_1_0_37 + v_1_1_36 + v_1_1_38 + v_1_1_39 >= 0
v_1_0_37 + v_1_0_39 + v_1_1_38 + v_1_1_39 - SB_1_1_9_p0 >= 0
- v_1_1_36 + v_1_1_39 + SB_1_1_9_p0 >= 0
- v_1_0_36 - v_1_0_37 + v_1_0_38 + v_1_0_39 - v_1_1_39 >= -2
- v_1_0_37 - v_1_0_39 + v_1_1_36 - v_1_1_38 - v_1_1_39 >= -3
- v_1_0_37 + v_1_0_39 + v_1_1_36 + v_1_1_39 + SB_1_1_9_p1 >= 0
v_1_0_36 - v_1_0_37 + v_1_0_38 - v_1_1_36 + v_1_1_37 - v_1_1_38 >= -2
v_1_0_36 + v_1_1_36 - v_1_1_37 + v_1_1_38 + v_1_1_39 >= 0
- v_1_0_36 + v_1_1_36 - v_1_1_37 + v_1_1_38 - v_1_1_39 >= -2
- v_1_0_39 + v_1_1_36 - v_1_1_38 + SB_1_1_9_p0 >= -1
- SB_1_1_9_p0 - SB_1_1_9_p1 >= -1
- v_1_0_36 - v_1_0_37 - v_1_0_38 - v_1_0_39 - v_1_1_36 + v_1_1_37 + v_1_1_39 >= -4
v_1_0_37 + v_1_0_39 - v_1_1_38 - v_1_1_39 + SB_1_1_9_p1 >= -1
- v_1_0_36 + v_1_0_37 - v_1_0_39 - v_1_1_36 - v_1_1_38 - v_1_1_39 >= -4
v_1_0_37 + v_1_0_38 + v_1_0_39 + v_1_1_38 - v_1_1_39 >= 0
- v_1_0_37 + v_1_1_36 - v_1_1_37 - v_1_1_38 + v_1_1_39 >= -2
v_1_0_36 + v_1_0_37 + v_1_0_38 - v_1_1_36 - v_1_1_37 + v_1_1_38 - v_1_1_39 >= -2
v_1_0_36 - v_1_0_37 - v_1_0_38 - v_1_1_36 - v_1_1_37 - v_1_1_39 >= -4
- v_1_0_36 - v_1_0_37 - v_1_0_39 + v_1_1_38 + v_1_1_39 + SB_1_1_9_p1 >= -2
- v_1_0_36 - v_1_0_38 - v_1_0_39 - v_1_1_37 + v_1_1_38 - v_1_1_39 >= -4
v_1_1_37 + v_1_1_38 + v_1_1_39 - SB_1_1_9_p1 >= 0
- v_1_0_39 + v_1_1_36 - v_1_1_39 + SB_1_1_9_p0 >= -1
v_1_0_38 + v_1_0_39 + v_1_1_36 - v_1_1_37 - SB_1_1_9_p0 >= -1
v_1_0_36 + v_1_0_39 - v_1_1_38 - v_1_1_39 + SB_1_1_9_p0 + SB_1_1_9_p2 >= -1
- v_1_1_36 + v_1_1_38 + SB_1_1_9_p0 >= 0
- v_1_0_36 - v_1_0_38 - v_1_1_38 - v_1_1_39 + SB_1_1_9_p0 >= -3
v_1_0_36 - v_1_0_39 + v_1_1_36 + v_1_1_37 + v_1_1_38 >= 0
- v_1_0_38 - v_1_1_37 + SB_1_1_9_p0 + SB_1_1_9_p1 >= -1
- v_1_0_36 - v_1_0_37 + v_1_0_38 - v_1_1_39 + SB_1_1_9_p0 >= -2
v_1_0_36 - v_1_0_37 + v_1_0_38 - v_1_0_39 + v_1_1_37 - v_1_1_39 >= -2
v_1_0_36 - v_1_0_37 - v_1_0_38 - v_1_0_39 - v_1_1_37 - v_1_1_38 >= -4
v_1_0_37 + v_1_1_36 + v_1_1_37 - v_1_1_38 + v_1_1_39 >= 0
- SB_1_1_9_p1 - SB_1_1_9_p2 >= -1
v_1_0_37 + v_1_0_38 + v_1_0_39 - v_1_1_38 + v_1_1_39 >= 0
v_1_0_36 - v_1_0_37 - v_1_1_36 - v_1_1_38 - v_1_1_39 + SB_1_1_9_p1 >= -3
v_1_0_38 + v_1_1_37 - SB_1_1_9_p2 >= 0
- v_1_0_36 - v_1_0_37 - v_1_0_38 + v_1_0_39 - v_1_1_38 >= -3
v_1_0_37 - v_1_0_38 - v_1_0_39 + v_1_1_37 - v_1_1_38 + v_1_1_39 >= -2
v_1_0_36 + v_1_0_37 - v_1_0_38 - v_1_0_39 + v_1_1_37 + v_1_1_38 - v_1_1_39 >= -2
v_1_0_36 - v_1_0_37 - v_1_0_38 + v_1_0_39 + v_1_1_38 >= -1
v_1_0_36 - v_1_0_37 + v_1_0_38 + v_1_0_39 + v_1_1_39 >= 0
v_1_0_36 + v_1_1_36 + v_1_1_37 + v_1_1_38 - v_1_1_39 >= 0
- v_1_0_36 - v_1_0_37 + v_1_0_38 - v_1_0_39 - v_1_1_36 - v_1_1_37 + v_1_1_39 >= -4
- v_1_0_38 + v_1_0_39 + v_1_1_36 + v_1_1_37 - SB_1_1_9_p0 >= -1
v_1_0_36 + v_1_0_37 + v_1_1_36 - v_1_1_38 - v_1_1_39 >= -1
- v_1_0_41 + v_1_0_43 + v_1_1_40 + v_1_1_42 + SB_1_1_10_p1 >= 0
- v_1_0_40 + v_1_0_42 - v_1_1_40 + v_1_1_41 + v_1_1_42 - v_1_1_43 >= -2
v_1_0_41 - v_1_0_43 + SB_1_1_10_p0 >= 0
v_1_0_41 - v_1_0_42 + v_1_0_43 + v_1_1_40 + SB_1_1_10_p1 >= 0
- SB_1_1_10_p0 - SB_1_1_10_p2 >= -1
v_1_0_41 + v_1_0_42 - v_1_1_40 - v_1_1_41 - v_1_1_42 + v_1_1_43 >= -2
- v_1_0_40 + v_1_0_41 + v_1_1_40 + v_1_1_42 + v_1_1_43 >= 0
v_1_0_41 + v_1_0_43 + v_1_1_42 + v_1_1_43 - SB_1_1_10_p0 >= 0
- v_1_1_40 + v_1_1_43 + SB_1_1_10_p0 >= 0
- v_1_0_40 - v_1_0_41 + v_1_0_42 + v_1_0_43 - v_1_1_43 >= -2
- v_1_0_41 - v_1_0_43 + v_1_1_40 - v_1_1_42 - v_1_1_43 >= -3
- v_1_0_41 + v_1_0_43 + v_1_1_40 + v_1_1_43 + SB_1_1_10_p1 >= 0
v_1_0_40 - v_1_0_41 + v_1_0_42 - v_1_1_40 + v_1_1_41 - v_1_1_42 >= -2
v_1_0_40 + v_1_1_40 - v_1_1_41 + v_1_1_42 + v_1_1_43 >= 0
- v_1_0_40 + v_1_1_40 - v_1_1_41 + v_1_1_42 - v_1_1_43 >= -2
- v_1_0_43 + v_1_1_40 - v_1_1_42 + SB_1_1_10_p0 >= -1
- SB_1_1_10_p0 - SB_1_1_10_p1 >= -1
- v_1_0_40 - v_1_0_41 - v_1_0_42 - v_1_0_43 - v_1_1_40 + v_1_1_41 + v_1_1_43 >= -4
v_1_0_41 + v_1_0_43 - v_1_1_42 - v_1_1_43 + SB_1_1_10_p1 >= -1
- v_1_0_40 + v_1_0_41 - v_1_0_43 - v_1_1_40 - v_1_1_42 - v_1_1_43 >= -4
v_1_0_41 + v_1_0_42 + v_1_0_43 + v_1_1_42 - v_1_1_43 >= 0
- v_1_0_41 + v_1_1_40 - v_1_1_41 - v_1_1_42 + v_1_1_43 >= -2
v_1_0_40 + v_1_0_41 + v_1_0_42 - v_1_1_40 - v_1_1_41 + v_1_1_42 - v_1_1_43 >= -2
v_1_0_40 - v_1_0_41 - v_1_0_42 - v_1_1_40 - v_1_1_41 - v_1_1_43 >= -4
- v_1_0_40 - v_1_0_41 - v_1_0_43 + v_1_1_42 + v_1_1_43 + SB_1_1_10_p1 >= -2
- v_1_0_40 - v_1_0_42 - v_1_0_43 - v_1_1_41 + v_1_1_42 - v_1_1_43 >= -4
v_1_1_41 + v_1_1_42 + v_1_1_43 - SB_1_1_10_p1 >= 0
- v_1_0_43 + v_1_1_40 - v_1_1_43 + SB_1_1_10_p0 >= -1
v_1_0_42 + v_1_0_43 + v_1_1_40 - v_1_1_41 - SB_1_1_10_p0 >= -1
v_1_0_40 + v_1_0_43 - v_1_1_42 - v_1_1_43 + SB_1_1_10_p0 + SB_1_1_10_p2 >= -1
- v_1_1_40 + v_1_1_42 + SB_1_1_10_p0 >= 0
- v_1_0_40 - v_1_0_42 - v_1_1_42 - v_1_1_43 + SB_1_1_10_p0 >= -3
v_1_0_40 - v_1_0_43 + v_1_1_40 + v_1_1_41 + v_1_1_42 >= 0
- v_1_0_42 - v_1_1_41 + SB_1_1_10_p0 + SB_1_1_10_p1 >= -1
- v_1_0_40 - v_1_0_41 + v_1_0_42 - v_1_1_43 + SB_1_1_10_p0 >= -2
v_1_0_40 - v_1_0_41 + v_1_0_42 - v_1_0_43 + v_1_1_41 - v_1_1_43 >= -2
v_1_0_40 - v_1_0_41 - v_1_0_42 - v_1_0_43 - v_1_1_41 - v_1_1_42 >= -4
v_1_0_41 + v_1_1_40 + v_1_1_41 - v_1_1_42 + v_1_1_43 >= 0
- SB_1_1_10_p1 - SB_1_1_10_p2 >= -1
v_1_0_41 + v_1_0_42 + v_1_0_43 - v_1_1_42 + v_1_1_43 >= 0
v_1_0_40 - v_1_0_41 - v_1_1_40 - v_1_1_42 - v_1_1_43 + SB_1_1_10_p1 >= -3
v_1_0_42 + v_1_1_41 - SB_1_1_10_p2 >= 0
- v_1_0_40 - v_1_0_41 - v_1_0_42 + v_1_0_43 - v_1_1_42 >= -3
v_1_0_41 - v_1_0_42 - v_1_0_43 + v_1_1_41 - v_1_1_42 + v_1_1_43 >= -2
v_1_0_40 + v_1_0_41 - v_1_0_42 - v_1_0_43 + v_1_1_41 + v_1_1_42 - v_1_1_43 >= -2
v_1_0_40 - v_1_0_41 - v_1_0_42 + v_1_0_43 + v_1_1_42 >= -1
v_1_0_40 - v_1_0_41 + v_1_0_42 + v_1_0_43 + v_1_1_43 >= 0
v_1_0_40 + v_1_1_40 + v_1_1_41 + v_1_1_42 - v_1_1_43 >= 0
- v_1_0_40 - v_1_0_41 + v_1_0_42 - v_1_0_43 - v_1_1_40 - v_1_1_41 + v_1_1_43 >= -4
- v_1_0_42 + v_1_0_43 + v_1_1_40 + v_1_1_41 - SB_1_1_10_p0 >= -1
v_1_0_40 + v_1_0_41 + v_1_1_40 - v_1_1_42 - v_1_1_43 >= -1
- v_1_0_45 + v_1_0_47 + v_1_1_44 + v_1_1_46 + SB_1_1_11_p1 >= 0
- v_1_0_44 + v_1_0_46 - v_1_1_44 + v_1_1_45 + v_1_1_46 - v_1_1_47 >= -2
v_1_0_45 - v_1_0_47 + SB_1_1_11_p0 >= 0
v_1_0_45 - v_1_0_46 + v_1_0_47 + v_1_1_44 + SB_1_1_11_p1 >= 0
- SB_1_1_11_p0 - SB_1_1_11_p2 >= -1
v_1_0_45 + v_1_0_46 - v_1_1_44 - v_1_1_45 - v_1_1_46 + v_1_1_47 >= -2
- v_1_0_44 + v_1_0_45 + v_1_1_44 + v_1_1_46 + v_1_1_47 >= 0
v_1_0_45 + v_1_0_47 + v_1_1_46 + v_1_1_47 - SB_1_1_11_p0 >= 0
- v_1_1_44 + v_1_1_47 + SB_1_1_11_p0 >= 0
- v_1_0_44 - v_1_0_45 + v_1_0_46 + v_1_0_47 - v_1_1_47 >= -2
- v_1_0_45 - v_1_0_47 + v_1_1_44 - v_1_1_46 - v_1_1_47 >= -3
- v_1_0_45 + v_1_0_47 + v_1_1_44 + v_1_1_47 + SB_1_1_11_p1 >= 0
v_1_0_44 - v_1_0_45 + v_1_0_46 - v_1_1_44 + v_1_1_45 - v_1_1_46 >= -2
v_1_0_44 + v_1_1_44 - v_1_1_45 + v_1_1_46 + v_1_1_47 >= 0
- v_1_0_44 + v_1_1_44 - v_1_1_45 + v_1_1_46 - v_1_1_47 >= -2
- v_1_0_47 + v_1_1_44 - v_1_1_46 + SB_1_1_11_p0 >= -1
- SB_1_1_11_p0 - SB_1_1_11_p1 >= -1
- v_1_0_44 - v_1_0_45 - v_1_0_46 - v_1_0_47 - v_1_1_44 + v_1_1_45 + v_1_1_47 >= -4
v_1_0_45 + v_1_0_47 - v_1_1_46 - v_1_1_47 + SB_1_1_11_p1 >= -1
- v_1_0_44 + v_1_0_45 - v_1_0_47 - v_1_1_44 - v_1_1_46 - v_1_1_47 >= -4
v_1_0_45 + v_1_0_46 + v_1_0_47 + v_1_1_46 - v_1_1_47 >= 0
- v_1_0_45 + v_1_1_44 - v_1_1_45 - v_1_1_46 + v_1_1_47 >= -2
v_1_0_44 + v_1_0_45 + v_1_0_46 - v_1_1_44 - v_1_1_45 + v_1_1_46 - v_1_1_47 >= -2
v_1_0_44 - v_1_0_45 - v_1_0_46 - v_1_1_44 - v_1_1_45 - v_1_1_47 >= -4
- v_1_0_44 - v_1_0_45 - v_1_0_47 + v_1_1_46 + v_1_1_47 + SB_1_1_11_p1 >= -2
- v_1_0_44 - v_1_0_46 - v_1_0_47 - v_1_1_45 + v_1_1_46 - v_1_1_47 >= -4
v_1_1_45 + v_1_1_46 + v_1_1_47 - SB_1_1_11_p1 >= 0
- v_1_0_47 + v_1_1_44 - v_1_1_47 + SB_1_1_11_p0 >= -1
v_1_0_46 + v_1_0_47 + v_1_1_44 - v_1_1_45 - SB_1_1_11_p0 >= -1
v_1_0_44 + v_1_0_47 - v_1_1_46 - v_1_1_47 + SB_1_1_11_p0 + SB_1_1_11_p2 >= -1
- v_1_1_44 + v_1_1_46 + SB_1_1_11_p0 >= 0
- v_1_0_44 - v_1_0_46 - v_1_1_46 - v_1_1_47 + SB_1_1_11_p0 >= -3
v_1_0_44 - v_1_0_47 + v_1_1_44 + v_1_1_45 + v_1_1_46 >= 0
- v_1_0_46 - v_1_1_45 + SB_1_1_11_p0 + SB_1_1_11_p1 >= -1
- v_1_0_44 - v_1_0_45 + v_1_0_46 - v_1_1_47 + SB_1_1_11_p0 >= -2
v_1_0_44 - v_1_0_45 + v_1_0_46 - v_1_0_47 + v_1_1_45 - v_1_1_47 >= -2
v_1_0_44 - v_1_0_45 - v_1_0_46 - v_1_0_47 - v_1_1_45 - v_1_1_46 >= -4
v_1_0_45 + v_1_1_44 + v_1_1_45 - v_1_1_46 + v_1_1_47 >= 0
- SB_1_1_11_p1 - SB_1_1_11_p2 >= -1
v_1_0_45 + v_1_0_46 + v_1_0_47 - v_1_1_46 + v_1_1_47 >= 0
v_1_0_44 - v_1_0_45 - v_1_1_44 - v_1_1_46 - v_1_1_47 + SB_1_1_11_p1 >= -3
v_1_0_46 + v_1_1_45 - SB_1_1_11_p2 >= 0
- v_1_0_44 - v_1_0_45 - v_1_0_46 + v_1_0_47 - v_1_1_46 >= -3
v_1_0_45 - v_1_0_46 - v_1_0_47 + v_1_1_45 - v_1_1_46 + v_1_1_47 >= -2
v_1_0_44 + v_1_0_45 - v_1_0_46 - v_1_0_47 + v_1_1_45 + v_1_1_46 - v_1_1_47 >= -2
v_1_0_44 - v_1_0_45 - v_1_0_46 + v_1_0_47 + v_1_1_46 >= -1
v_1_0_44 - v_1_0_45 + v_1_0_46 + v_1_0_47 + v_1_1_47 >= 0
v_1_0_44 + v_1_1_44 + v_1_1_45 + v_1_1_46 - v_1_1_47 >= 0
- v_1_0_44 - v_1_0_45 + v_1_0_46 - v_1_0_47 - v_1_1_44 - v_1_1_45 + v_1_1_47 >= -4
- v_1_0_46 + v_1_0_47 + v_1_1_44 + v_1_1_45 - SB_1_1_11_p0 >= -1
v_1_0_44 + v_1_0_45 + v_1_1_44 - v_1_1_46 - v_1_1_47 >= -1
- v_1_0_49 + v_1_0_51 + v_1_1_48 + v_1_1_50 + SB_1_1_12_p1 >= 0
- v_1_0_48 + v_1_0_50 - v_1_1_48 + v_1_1_49 + v_1_1_50 - v_1_1_51 >= -2
v_1_0_49 - v_1_0_51 + SB_1_1_12_p0 >= 0
v_1_0_49 - v_1_0_50 + v_1_0_51 + v_1_1_48 + SB_1_1_12_p1 >= 0
- SB_1_1_12_p0 - SB_1_1_12_p2 >= -1
v_1_0_49 + v_1_0_50 - v_1_1_48 - v_1_1_49 - v_1_1_50 + v_1_1_51 >= -2
- v_1_0_48 + v_1_0_49 + v_1_1_48 + v_1_1_50 + v_1_1_51 >= 0
v_1_0_49 + v_1_0_51 + v_1_1_50 + v_1_1_51 - SB_1_1_12_p0 >= 0
- v_1_1_48 + v_1_1_51 + SB_1_1_12_p0 >= 0
- v_1_0_48 - v_1_0_49 + v_1_0_50 + v_1_0_51 - v_1_1_51 >= -2
- v_1_0_49 - v_1_0_51 + v_1_1_48 - v_1_1_50 - v_1_1_51 >= -3
- v_1_0_49 + v_1_0_51 + v_1_1_48 + v_1_1_51 + SB_1_1_12_p1 >= 0
v_1_0_48 - v_1_0_49 + v_1_0_50 - v_1_1_48 + v_1_1_49 - v_1_1_50 >= -2
v_1_0_48 + v_1_1_48 - v_1_1_49 + v_1_1_50 + v_1_1_51 >= 0
- v_1_0_48 + v_1_1_48 - v_1_1_49 + v_1_1_50 - v_1_1_51 >= -2
- v_1_0_51 + v_1_1_48 - v_1_1_50 + SB_1_1_12_p0 >= -1
- SB_1_1_12_p0 - SB_1_1_12_p1 >= -1
- v_1_0_48 - v_1_0_49 - v_1_0_50 - v_1_0_51 - v_1_1_48 + v_1_1_49 + v_1_1_51 >= -4
v_1_0_49 + v_1_0_51 - v_1_1_50 - v_1_1_51 + SB_1_1_12_p1 >= -1
- v_1_0_48 + v_1_0_49 - v_1_0_51 - v_1_1_48 - v_1_1_50 - v_1_1_51 >= -4
v_1_0_49 + v_1_0_50 + v_1_0_51 + v_1_1_50 - v_1_1_51 >= 0
- v_1_0_49 + v_1_1_48 - v_1_1_49 - v_1_1_50 + v_1_1_51 >= -2
v_1_0_48 + v_1_0_49 + v_1_0_50 - v_1_1_48 - v_1_1_49 + v_1_1_50 - v_1_1_51 >= -2
v_1_0_48 - v_1_0_49 - v_1_0_50 - v_1_1_48 - v_1_1_49 - v_1_1_51 >= -4
- v_1_0_48 - v_1_0_49 - v_1_0_51 + v_1_1_50 + v_1_1_51 + SB_1_1_12_p1 >= -2
- v_1_0_48 - v_1_0_50 - v_1_0_51 - v_1_1_49 + v_1_1_50 - v_1_1_51 >= -4
v_1_1_49 + v_1_1_50 + v_1_1_51 - SB_1_1_12_p1 >= 0
- v_1_0_51 + v_1_1_48 - v_1_1_51 + SB_1_1_12_p0 >= -1
v_1_0_50 + v_1_0_51 + v_1_1_48 - v_1_1_49 - SB_1_1_12_p0 >= -1
v_1_0_48 + v_1_0_51 - v_1_1_50 - v_1_1_51 + SB_1_1_12_p0 + SB_1_1_12_p2 >= -1
- v_1_1_48 + v_1_1_50 + SB_1_1_12_p0 >= 0
- v_1_0_48 - v_1_0_50 - v_1_1_50 - v_1_1_51 + SB_1_1_12_p0 >= -3
v_1_0_48 - v_1_0_51 + v_1_1_48 + v_1_1_49 + v_1_1_50 >= 0
- v_1_0_50 - v_1_1_49 + SB_1_1_12_p0 + SB_1_1_12_p1 >= -1
- v_1_0_48 - v_1_0_49 + v_1_0_50 - v_1_1_51 + SB_1_1_12_p0 >= -2
v_1_0_48 - v_1_0_49 + v_1_0_50 - v_1_0_51 + v_1_1_49 - v_1_1_51 >= -2
v_1_0_48 - v_1_0_49 - v_1_0_50 - v_1_0_51 - v_1_1_49 - v_1_1_50 >= -4
v_1_0_49 + v_1_1_48 + v_1_1_49 - v_1_1_50 + v_1_1_51 >= 0
- SB_1_1_12_p1 - SB_1_1_12_p2 >= -1
v_1_0_49 + v_1_0_50 + v_1_0_51 - v_1_1_50 + v_1_1_51 >= 0
v_1_0_48 - v_1_0_49 - v_1_1_48 - v_1_1_50 - v_1_1_51 + SB_1_1_12_p1 >= -3
v_1_0_50 + v_1_1_49 - SB_1_1_12_p2 >= 0
- v_1_0_48 - v_1_0_49 - v_1_0_50 + v_1_0_51 - v_1_1_50 >= -3
v_1_0_49 - v_1_0_50 - v_1_0_51 + v_1_1_49 - v_1_1_50 + v_1_1_51 >= -2
v_1_0_48 + v_1_0_49 - v_1_0_50 - v_1_0_51 + v_1_1_49 + v_1_1_50 - v_1_1_51 >= -2
v_1_0_48 - v_1_0_49 - v_1_0_50 + v_1_0_51 + v_1_1_50 >= -1
v_1_0_48 - v_1_0_49 + v_1_0_50 + v_1_0_51 + v_1_1_51 >= 0
v_1_0_48 + v_1_1_48 + v_1_1_49 + v_1_1_50 - v_1_1_51 >= 0
- v_1_0_48 - v_1_0_49 + v_1_0_50 - v_1_0_51 - v_1_1_48 - v_1_1_49 + v_1_1_51 >= -4
- v_1_0_50 + v_1_0_51 + v_1_1_48 + v_1_1_49 - SB_1_1_12_p0 >= -1
v_1_0_48 + v_1_0_49 + v_1_1_48 - v_1_1_50 - v_1_1_51 >= -1
- v_1_0_53 + v_1_0_55 + v_1_1_52 + v_1_1_54 + SB_1_1_13_p1 >= 0
- v_1_0_52 + v_1_0_54 - v_1_1_52 + v_1_1_53 + v_1_1_54 - v_1_1_55 >= -2
v_1_0_53 - v_1_0_55 + SB_1_1_13_p0 >= 0
v_1_0_53 - v_1_0_54 + v_1_0_55 + v_1_1_52 + SB_1_1_13_p1 >= 0
- SB_1_1_13_p0 - SB_1_1_13_p2 >= -1
v_1_0_53 + v_1_0_54 - v_1_1_52 - v_1_1_53 - v_1_1_54 + v_1_1_55 >= -2
- v_1_0_52 + v_1_0_53 + v_1_1_52 + v_1_1_54 + v_1_1_55 >= 0
v_1_0_53 + v_1_0_55 + v_1_1_54 + v_1_1_55 - SB_1_1_13_p0 >= 0
- v_1_1_52 + v_1_1_55 + SB_1_1_13_p0 >= 0
- v_1_0_52 - v_1_0_53 + v_1_0_54 + v_1_0_55 - v_1_1_55 >= -2
- v_1_0_53 - v_1_0_55 + v_1_1_52 - v_1_1_54 - v_1_1_55 >= -3
- v_1_0_53 + v_1_0_55 + v_1_1_52 + v_1_1_55 + SB_1_1_13_p1 >= 0
v_1_0_52 - v_1_0_53 + v_1_0_54 - v_1_1_52 + v_1_1_53 - v_1_1_54 >= -2
v_1_0_52 + v_1_1_52 - v_1_1_53 + v_1_1_54 + v_1_1_55 >= 0
- v_1_0_52 + v_1_1_52 - v_1_1_53 + v_1_1_54 - v_1_1_55 >= -2
- v_1_0_55 + v_1_1_52 - v_1_1_54 + SB_1_1_13_p0 >= -1
- SB_1_1_13_p0 - SB_1_1_13_p1 >= -1
- v_1_0_52 - v_1_0_53 - v_1_0_54 - v_1_0_55 - v_1_1_52 + v_1_1_53 + v_1_1_55 >= -4
v_1_0_53 + v_1_0_55 - v_1_1_54 - v_1_1_55 + SB_1_1_13_p1 >= -1
- v_1_0_52 + v_1_0_53 - v_1_0_55 - v_1_1_52 - v_1_1_54 - v_1_1_55 >= -4
v_1_0_53 + v_1_0_54 + v_1_0_55 + v_1_1_54 - v_1_1_55 >= 0
- v_1_0_53 + v_1_1_52 - v_1_1_53 - v_1_1_54 + v_1_1_55 >= -2
v_1_0_52 + v_1_0_53 + v_1_0_54 - v_1_1_52 - v_1_1_53 + v_1_1_54 - v_1_1_55 >= -2
v_1_0_52 - v_1_0_53 - v_1_0_54 - v_1_1_52 - v_1_1_53 - v_1_1_55 >= -4
- v_1_0_52 - v_1_0_53 - v_1_0_55 + v_1_1_54 + v_1_1_55 + SB_1_1_13_p1 >= -2
- v_1_0_52 - v_1_0_54 - v_1_0_55 - v_1_1_53 + v_1_1_54 - v_1_1_55 >= -4
v_1_1_53 + v_1_1_54 + v_1_1_55 - SB_1_1_13_p1 >= 0
- v_1_0_55 + v_1_1_52 - v_1_1_55 + SB_1_1_13_p0 >= -1
v_1_0_54 + v_1_0_55 + v_1_1_52 - v_1_1_53 - SB_1_1_13_p0 >= -1
v_1_0_52 + v_1_0_55 - v_1_1_54 - v_1_1_55 + SB_1_1_13_p0 + SB_1_1_13_p2 >= -1
- v_1_1_52 + v_1_1_54 + SB_1_1_13_p0 >= 0
- v_1_0_52 - v_1_0_54 - v_1_1_54 - v_1_1_55 + SB_1_1_13_p0 >= -3
v_1_0_52 - v_1_0_55 + v_1_1_52 + v_1_1_53 + v_1_1_54 >= 0
- v_1_0_54 - v_1_1_53 + SB_1_1_13_p0 + SB_1_1_13_p1 >= -1
- v_1_0_52 - v_1_0_53 + v_1_0_54 - v_1_1_55 + SB_1_1_13_p0 >= -2
v_1_0_52 - v_1_0_53 + v_1_0_54 - v_1_0_55 + v_1_1_53 - v_1_1_55 >= -2
v_1_0_52 - v_1_0_53 - v_1_0_54 - v_1_0_55 - v_1_1_53 - v_1_1_54 >= -4
v_1_0_53 + v_1_1_52 + v_1_1_53 - v_1_1_54 + v_1_1_55 >= 0
- SB_1_1_13_p1 - SB_1_1_13_p2 >= -1
v_1_0_53 + v_1_0_54 + v_1_0_55 - v_1_1_54 + v_1_1_55 >= 0
v_1_0_52 - v_1_0_53 - v_1_1_52 - v_1_1_54 - v_1_1_55 + SB_1_1_13_p1 >= -3
v_1_0_54 + v_1_1_53 - SB_1_1_13_p2 >= 0
- v_1_0_52 - v_1_0_53 - v_1_0_54 + v_1_0_55 - v_1_1_54 >= -3
v_1_0_53 - v_1_0_54 - v_1_0_55 + v_1_1_53 - v_1_1_54 + v_1_1_55 >= -2
v_1_0_52 + v_1_0_53 - v_1_0_54 - v_1_0_55 + v_1_1_53 + v_1_1_54 - v_1_1_55 >= -2
v_1_0_52 - v_1_0_53 - v_1_0_54 + v_1_0_55 + v_1_1_54 >= -1
v_1_0_52 - v_1_0_53 + v_1_0_54 + v_1_0_55 + v_1_1_55 >= 0
v_1_0_52 + v_1_1_52 + v_1_1_53 + v_1_1_54 - v_1_1_55 >= 0
- v_1_0_52 - v_1_0_53 + v_1_0_54 - v_1_0_55 - v_1_1_52 - v_1_1_53 + v_1_1_55 >= -4
- v_1_0_54 + v_1_0_55 + v_1_1_52 + v_1_1_53 - SB_1_1_13_p0 >= -1
v_1_0_52 + v_1_0_53 + v_1_1_52 - v_1_1_54 - v_1_1_55 >= -1
- v_1_0_57 + v_1_0_59 + v_1_1_56 + v_1_1_58 + SB_1_1_14_p1 >= 0
- v_1_0_56 + v_1_0_58 - v_1_1_56 + v_1_1_57 + v_1_1_58 - v_1_1_59 >= -2
v_1_0_57 - v_1_0_59 + SB_1_1_14_p0 >= 0
v_1_0_57 - v_1_0_58 + v_1_0_59 + v_1_1_56 + SB_1_1_14_p1 >= 0
- SB_1_1_14_p0 - SB_1_1_14_p2 >= -1
v_1_0_57 + v_1_0_58 - v_1_1_56 - v_1_1_57 - v_1_1_58 + v_1_1_59 >= -2
- v_1_0_56 + v_1_0_57 + v_1_1_56 + v_1_1_58 + v_1_1_59 >= 0
v_1_0_57 + v_1_0_59 + v_1_1_58 + v_1_1_59 - SB_1_1_14_p0 >= 0
- v_1_1_56 + v_1_1_59 + SB_1_1_14_p0 >= 0
- v_1_0_56 - v_1_0_57 + v_1_0_58 + v_1_0_59 - v_1_1_59 >= -2
- v_1_0_57 - v_1_0_59 + v_1_1_56 - v_1_1_58 - v_1_1_59 >= -3
- v_1_0_57 + v_1_0_59 + v_1_1_56 + v_1_1_59 + SB_1_1_14_p1 >= 0
v_1_0_56 - v_1_0_57 + v_1_0_58 - v_1_1_56 + v_1_1_57 - v_1_1_58 >= -2
v_1_0_56 + v_1_1_56 - v_1_1_57 + v_1_1_58 + v_1_1_59 >= 0
- v_1_0_56 + v_1_1_56 - v_1_1_57 + v_1_1_58 - v_1_1_59 >= -2
- v_1_0_59 + v_1_1_56 - v_1_1_58 + SB_1_1_14_p0 >= -1
- SB_1_1_14_p0 - SB_1_1_14_p1 >= -1
- v_1_0_56 - v_1_0_57 - v_1_0_58 - v_1_0_59 - v_1_1_56 + v_1_1_57 + v_1_1_59 >= -4
v_1_0_57 + v_1_0_59 - v_1_1_58 - v_1_1_59 + SB_1_1_14_p1 >= -1
- v_1_0_56 + v_1_0_57 - v_1_0_59 - v_1_1_56 - v_1_1_58 - v_1_1_59 >= -4
v_1_0_57 + v_1_0_58 + v_1_0_59 + v_1_1_58 - v_1_1_59 >= 0
- v_1_0_57 + v_1_1_56 - v_1_1_57 - v_1_1_58 + v_1_1_59 >= -2
v_1_0_56 + v_1_0_57 + v_1_0_58 - v_1_1_56 - v_1_1_57 + v_1_1_58 - v_1_1_59 >= -2
v_1_0_56 - v_1_0_57 - v_1_0_58 - v_1_1_56 - v_1_1_57 - v_1_1_59 >= -4
- v_1_0_56 - v_1_0_57 - v_1_0_59 + v_1_1_58 + v_1_1_59 + SB_1_1_14_p1 >= -2
- v_1_0_56 - v_1_0_58 - v_1_0_59 - v_1_1_57 + v_1_1_58 - v_1_1_59 >= -4
v_1_1_57 + v_1_1_58 + v_1_1_59 - SB_1_1_14_p1 >= 0
- v_1_0_59 + v_1_1_56 - v_1_1_59 + SB_1_1_14_p0 >= -1
v_1_0_58 + v_1_0_59 + v_1_1_56 - v_1_1_57 - SB_1_1_14_p0 >= -1
v_1_0_56 + v_1_0_59 - v_1_1_58 - v_1_1_59 + SB_1_1_14_p0 + SB_1_1_14_p2 >= -1
- v_1_1_56 + v_1_1_58 + SB_1_1_14_p0 >= 0
- v_1_0_56 - v_1_0_58 - v_1_1_58 - v_1_1_59 + SB_1_1_14_p0 >= -3
v_1_0_56 - v_1_0_59 + v_1_1_56 + v_1_1_57 + v_1_1_58 >= 0
- v_1_0_58 - v_1_1_57 + SB_1_1_14_p0 + SB_1_1_14_p1 >= -1
- v_1_0_56 - v_1_0_57 + v_1_0_58 - v_1_1_59 + SB_1_1_14_p0 >= -2
v_1_0_56 - v_1_0_57 + v_1_0_58 - v_1_0_59 + v_1_1_57 - v_1_1_59 >= -2
v_1_0_56 - v_1_0_57 - v_1_0_58 - v_1_0_59 - v_1_1_57 - v_1_1_58 >= -4
v_1_0_57 + v_1_1_56 + v_1_1_57 - v_1_1_58 + v_1_1_59 >= 0
- SB_1_1_14_p1 - SB_1_1_14_p2 >= -1
v_1_0_57 + v_1_0_58 + v_1_0_59 - v_1_1_58 + v_1_1_59 >= 0
v_1_0_56 - v_1_0_57 - v_1_1_56 - v_1_1_58 - v_1_1_59 + SB_1_1_14_p1 >= -3
v_1_0_58 + v_1_1_57 - SB_1_1_14_p2 >= 0
- v_1_0_56 - v_1_0_57 - v_1_0_58 + v_1_0_59 - v_1_1_58 >= -3
v_1_0_57 - v_1_0_58 - v_1_0_59 + v_1_1_57 - v_1_1_58 + v_1_1_59 >= -2
v_1_0_56 + v_1_0_57 - v_1_0_58 - v_1_0_59 + v_1_1_57 + v_1_1_58 - v_1_1_59 >= -2
v_1_0_56 - v_1_0_57 - v_1_0_58 + v_1_0_59 + v_1_1_58 >= -1
v_1_0_56 - v_1_0_57 + v_1_0_58 + v_1_0_59 + v_1_1_59 >= 0
v_1_0_56 + v_1_1_56 + v_1_1_57 + v_1_1_58 - v_1_1_59 >= 0
- v_1_0_56 - v_1_0_57 + v_1_0_58 - v_1_0_59 - v_1_1_56 - v_1_1_57 + v_1_1_59 >= -4
- v_1_0_58 + v_1_0_59 + v_1_1_56 + v_1_1_57 - SB_1_1_14_p0 >= -1
v_1_0_56 + v_1_0_57 + v_1_1_56 - v_1_1_58 - v_1_1_59 >= -1
- v_1_0_61 + v_1_0_63 + v_1_1_60 + v_1_1_62 + SB_1_1_15_p1 >= 0
- v_1_0_60 + v_1_0_62 - v_1_1_60 + v_1_1_61 + v_1_1_62 - v_1_1_63 >= -2
v_1_0_61 - v_1_0_63 + SB_1_1_15_p0 >= 0
v_1_0_61 - v_1_0_62 + v_1_0_63 + v_1_1_60 + SB_1_1_15_p1 >= 0
- SB_1_1_15_p0 - SB_1_1_15_p2 >= -1
v_1_0_61 + v_1_0_62 - v_1_1_60 - v_1_1_61 - v_1_1_62 + v_1_1_63 >= -2
- v_1_0_60 + v_1_0_61 + v_1_1_60 + v_1_1_62 + v_1_1_63 >= 0
v_1_0_61 + v_1_0_63 + v_1_1_62 + v_1_1_63 - SB_1_1_15_p0 >= 0
- v_1_1_60 + v_1_1_63 + SB_1_1_15_p0 >= 0
- v_1_0_60 - v_1_0_61 + v_1_0_62 + v_1_0_63 - v_1_1_63 >= -2
- v_1_0_61 - v_1_0_63 + v_1_1_60 - v_1_1_62 - v_1_1_63 >= -3
- v_1_0_61 + v_1_0_63 + v_1_1_60 + v_1_1_63 + SB_1_1_15_p1 >= 0
v_1_0_60 - v_1_0_61 + v_1_0_62 - v_1_1_60 + v_1_1_61 - v_1_1_62 >= -2
v_1_0_60 + v_1_1_60 - v_1_1_61 + v_1_1_62 + v_1_1_63 >= 0
- v_1_0_60 + v_1_1_60 - v_1_1_61 + v_1_1_62 - v_1_1_63 >= -2
- v_1_0_63 + v_1_1_60 - v_1_1_62 + SB_1_1_15_p0 >= -1
- SB_1_1_15_p0 - SB_1_1_15_p1 >= -1
- v_1_0_60 - v_1_0_61 - v_1_0_62 - v_1_0_63 - v_1_1_60 + v_1_1_61 + v_1_1_63 >= -4
v_1_0_61 + v_1_0_63 - v_1_1_62 - v_1_1_63 + SB_1_1_15_p1 >= -1
- v_1_0_60 + v_1_0_61 - v_1_0_63 - v_1_1_60 - v_1_1_62 - v_1_1_63 >= -4
v_1_0_61 + v_1_0_62 + v_1_0_63 + v_1_1_62 - v_1_1_63 >= 0
- v_1_0_61 + v_1_1_60 - v_1_1_61 - v_1_1_62 + v_1_1_63 >= -2
v_1_0_60 + v_1_0_61 + v_1_0_62 - v_1_1_60 - v_1_1_61 + v_1_1_62 - v_1_1_63 >= -2
v_1_0_60 - v_1_0_61 - v_1_0_62 - v_1_1_60 - v_1_1_61 - v_1_1_63 >= -4
- v_1_0_60 - v_1_0_61 - v_1_0_63 + v_1_1_62 + v_1_1_63 + SB_1_1_15_p1 >= -2
- v_1_0_60 - v_1_0_62 - v_1_0_63 - v_1_1_61 + v_1_1_62 - v_1_1_63 >= -4
v_1_1_61 + v_1_1_62 + v_1_1_63 - SB_1_1_15_p1 >= 0
- v_1_0_63 + v_1_1_60 - v_1_1_63 + SB_1_1_15_p0 >= -1
v_1_0_62 + v_1_0_63 + v_1_1_60 - v_1_1_61 - SB_1_1_15_p0 >= -1
v_1_0_60 + v_1_0_63 - v_1_1_62 - v_1_1_63 + SB_1_1_15_p0 + SB_1_1_15_p2 >= -1
- v_1_1_60 + v_1_1_62 + SB_1_1_15_p0 >= 0
- v_1_0_60 - v_1_0_62 - v_1_1_62 - v_1_1_63 + SB_1_1_15_p0 >= -3
v_1_0_60 - v_1_0_63 + v_1_1_60 + v_1_1_61 + v_1_1_62 >= 0
- v_1_0_62 - v_1_1_61 + SB_1_1_15_p0 + SB_1_1_15_p1 >= -1
- v_1_0_60 - v_1_0_61 + v_1_0_62 - v_1_1_63 + SB_1_1_15_p0 >= -2
v_1_0_60 - v_1_0_61 + v_1_0_62 - v_1_0_63 + v_1_1_61 - v_1_1_63 >= -2
v_1_0_60 - v_1_0_61 - v_1_0_62 - v_1_0_63 - v_1_1_61 - v_1_1_62 >= -4
v_1_0_61 + v_1_1_60 + v_1_1_61 - v_1_1_62 + v_1_1_63 >= 0
- SB_1_1_15_p1 - SB_1_1_15_p2 >= -1
v_1_0_61 + v_1_0_62 + v_1_0_63 - v_1_1_62 + v_1_1_63 >= 0
v_1_0_60 - v_1_0_61 - v_1_1_60 - v_1_1_62 - v_1_1_63 + SB_1_1_15_p1 >= -3
v_1_0_62 + v_1_1_61 - SB_1_1_15_p2 >= 0
- v_1_0_60 - v_1_0_61 - v_1_0_62 + v_1_0_63 - v_1_1_62 >= -3
v_1_0_61 - v_1_0_62 - v_1_0_63 + v_1_1_61 - v_1_1_62 + v_1_1_63 >= -2
v_1_0_60 + v_1_0_61 - v_1_0_62 - v_1_0_63 + v_1_1_61 + v_1_1_62 - v_1_1_63 >= -2
v_1_0_60 - v_1_0_61 - v_1_0_62 + v_1_0_63 + v_1_1_62 >= -1
v_1_0_60 - v_1_0_61 + v_1_0_62 + v_1_0_63 + v_1_1_63 >= 0
v_1_0_60 + v_1_1_60 + v_1_1_61 + v_1_1_62 - v_1_1_63 >= 0
- v_1_0_60 - v_1_0_61 + v_1_0_62 - v_1_0_63 - v_1_1_60 - v_1_1_61 + v_1_1_63 >= -4
- v_1_0_62 + v_1_0_63 + v_1_1_60 + v_1_1_61 - SB_1_1_15_p0 >= -1
v_1_0_60 + v_1_0_61 + v_1_1_60 - v_1_1_62 - v_1_1_63 >= -1
v_1_1_12 - v_1_2_0 = 0
v_1_1_1 - v_1_2_1 = 0
v_1_1_6 - v_1_2_2 = 0
v_1_1_11 - v_1_2_3 = 0
v_1_1_28 - v_1_2_4 = 0
v_1_1_17 - v_1_2_5 = 0
v_1_1_22 - v_1_2_6 = 0
v_1_1_27 - v_1_2_7 = 0
v_1_1_44 - v_1_2_8 = 0
v_1_1_33 - v_1_2_9 = 0
v_1_1_38 - v_1_2_10 = 0
v_1_1_43 - v_1_2_11 = 0
v_1_1_60 - v_1_2_12 = 0
v_1_1_49 - v_1_2_13 = 0
v_1_1_54 - v_1_2_14 = 0
v_1_1_59 - v_1_2_15 = 0
v_1_1_8 - v_1_2_16 = 0
v_1_1_13 - v_1_2_17 = 0
v_1_1_2 - v_1_2_18 = 0
v_1_1_7 - v_1_2_19 = 0
v_1_1_24 - v_1_2_20 = 0
v_1_1_29 - v_1_2_21 = 0
v_1_1_18 - v_1_2_22 = 0
v_1_1_23 - v_1_2_23 = 0
v_1_1_40 - v_1_2_24 = 0
v_1_1_45 - v_1_2_25 = 0
v_1_1_34 - v_1_2_26 = 0
v_1_1_39 - v_1_2_27 = 0
v_1_1_56 - v_1_2_28 = 0
v_1_1_61 - v_1_2_29 = 0
v_1_1_50 - v_1_2_30 = 0
v_1_1_55 - v_1_2_31 = 0
v_1_1_4 - v_1_2_32 = 0
v_1_1_9 - v_1_2_33 = 0
v_1_1_14 - v_1_2_34 = 0
v_1_1_3 - v_1_2_35 = 0
v_1_1_20 - v_1_2_36 = 0
v_1_1_25 - v_1_2_37 = 0
v_1_1_30 - v_1_2_38 = 0
v_1_1_19 - v_1_2_39 = 0
v_1_1_36 - v_1_2_40 = 0
v_1_1_41 - v_1_2_41 = 0
v_1_1_46 - v_1_2_42 = 0
v_1_1_35 - v_1_2_43 = 0
v_1_1_52 - v_1_2_44 = 0
v_1_1_57 - v_1_2_45 = 0
v_1_1_62 - v_1_2_46 = 0
v_1_1_51 - v_1_2_47 = 0
v_1_1_0 - v_1_2_48 = 0
v_1_1_5 - v_1_2_49 = 0
v_1_1_10 - v_1_2_50 = 0
v_1_1_15 - v_1_2_51 = 0
v_1_1_16 - v_1_2_52 = 0
v_1_1_21 - v_1_2_53 = 0
v_1_1_26 - v_1_2_54 = 0
v_1_1_31 - v_1_2_55 = 0
v_1_1_32 - v_1_2_56 = 0
v_1_1_37 - v_1_2_57 = 0
v_1_1_42 - v_1_2_58 = 0
v_1_1_47 - v_1_2_59 = 0
v_1_1_48 - v_1_2_60 = 0
v_1_1_53 - v_1_2_61 = 0
v_1_1_58 - v_1_2_62 = 0
v_1_1_63 - v_1_2_63 = 0
v_1_2_0 - v_1_3_0 = 0
v_1_2_1 - v_1_3_1 = 0
v_1_2_2 - v_1_3_2 = 0
v_1_2_3 - v_1_3_3 = 0
v_1_2_4 - v_1_3_4 = 0
v_1_2_5 - v_1_3_5 = 0
v_1_2_6 - v_1_3_6 = 0
v_1_2_7 - v_1_3_7 = 0
v_1_2_8 - v_1_3_8 = 0
v_1_2_9 - v_1_3_9 = 0
v_1_2_10 - v_1_3_10 = 0
v_1_2_11 - v_1_3_11 = 0
v_1_2_12 - v_1_3_12 = 0
v_1_2_13 - v_1_3_13 = 0
v_1_2_14 - v_1_3_14 = 0
v_1_2_15 - v_1_3_15 = 0
v_1_2_16 - v_1_3_16 = 0
v_1_2_17 - v_1_3_17 = 0
v_1_2_18 - v_1_3_18 = 0
v_1_2_19 - v_1_3_19 = 0
v_1_2_20 - v_1_3_20 = 0
v_1_2_21 - v_1_3_21 = 0
v_1_2_22 - v_1_3_22 = 0
v_1_2_23 - v_1_3_23 = 0
v_1_2_24 - v_1_3_24 = 0
v_1_2_25 - v_1_3_25 = 0
v_1_2_26 - v_1_3_26 = 0
v_1_2_27 - v_1_3_27 = 0
v_1_2_28 - v_1_3_28 = 0
v_1_2_29 - v_1_3_29 = 0
v_1_2_30 - v_1_3_30 = 0
v_1_2_31 - v_1_3_31 = 0
v_1_2_32 - v_1_3_32 = 0
v_1_2_33 - v_1_3_33 = 0
v_1_2_34 - v_1_3_34 = 0
v_1_2_35 - v_1_3_35 = 0
v_1_2_36 - v_1_3_36 = 0
v_1_2_37 - v_1_3_37 = 0
v_1_2_38 - v_1_3_38 = 0
v_1_2_39 - v_1_3_39 = 0
v_1_2_40 - v_1_3_40 = 0
v_1_2_41 - v_1_3_41 = 0
v_1_2_42 - v_1_3_42 = 0
v_1_2_43 - v_1_3_43 = 0
v_1_2_44 - v_1_3_44 = 0
v_1_2_45 - v_1_3_45 = 0
v_1_2_46 - v_1_3_46 = 0
v_1_2_47 - v_1_3_47 = 0
v_1_2_48 - v_1_3_48 = 0
v_1_2_49 - v_1_3_49 = 0
v_1_2_50 - v_1_3_50 = 0
v_1_2_51 - v_1_3_51 = 0
v_1_2_52 - v_1_3_52 = 0
v_1_2_53 - v_1_3_53 = 0
v_1_2_54 - v_1_3_54 = 0
v_1_2_55 - v_1_3_55 = 0
v_1_2_56 - v_1_3_56 = 0
v_1_2_57 - v_1_3_57 = 0
v_1_2_58 - v_1_3_58 = 0
v_1_2_59 - v_1_3_59 = 0
v_1_2_60 - v_1_3_60 = 0
v_1_2_61 - v_1_3_61 = 0
v_1_2_62 - v_1_3_62 = 0
v_1_2_63 - v_1_3_63 = 0
3.0000 SB_1_1_0_p0 + 2.0000 SB_1_1_0_p1 + 1.4150 SB_1_1_0_p2 + 3.0000 SB_1_1_1_p0 + 2.0000 SB_1_1_1_p1 + 1.4150 SB_1_1_1_p2 + 3.0000 SB_1_1_2_p0 + 2.0000 SB_1_1_2_p1 + 1.4150 SB_1_1_2_p2 + 3.0000 SB_1_1_3_p0 + 2.0000 SB_1_1_3_p1 + 1.4150 SB_1_1_3_p2 + 3.0000 SB_1_1_4_p0 + 2.0000 SB_1_1_4_p1 + 1.4150 SB_1_1_4_p2 + 3.0000 SB_1_1_5_p0 + 2.0000 SB_1_1_5_p1 + 1.4150 SB_1_1_5_p2 + 3.0000 SB_1_1_6_p0 + 2.0000 SB_1_1_6_p1 + 1.4150 SB_1_1_6_p2 + 3.0000 SB_1_1_7_p0 + 2.0000 SB_1_1_7_p1 + 1.4150 SB_1_1_7_p2 + 3.0000 SB_1_1_8_p0 + 2.0000 SB_1_1_8_p1 + 1.4150 SB_1_1_8_p2 + 3.0000 SB_1_1_9_p0 + 2.0000 SB_1_1_9_p1 + 1.4150 SB_1_1_9_p2 + 3.0000 SB_1_1_10_p0 + 2.0000 SB_1_1_10_p1 + 1.4150 SB_1_1_10_p2 + 3.0000 SB_1_1_11_p0 + 2.0000 SB_1_1_11_p1 + 1.4150 SB_1_1_11_p2 + 3.0000 SB_1_1_12_p0 + 2.0000 SB_1_1_12_p1 + 1.4150 SB_1_1_12_p2 + 3.0000 SB_1_1_13_p0 + 2.0000 SB_1_1_13_p1 + 1.4150 SB_1_1_13_p2 + 3.0000 SB_1_1_14_p0 + 2.0000 SB_1_1_14_p1 + 1.4150 SB_1_1_14_p2 + 3.0000 SB_1_1_15_p0 + 2.0000 SB_1_1_15_p1 + 1.4150 SB_1_1_15_p2 - obj = 0
Binary
SB_1_1_0_p0 SB_1_1_0_p1 SB_1_1_0_p2 SB_1_1_10_p0 SB_1_1_10_p1 SB_1_1_10_p2 SB_1_1_11_p0 SB_1_1_11_p1 SB_1_1_11_p2 SB_1_1_12_p0 SB_1_1_12_p1 SB_1_1_12_p2 SB_1_1_13_p0 SB_1_1_13_p1 SB_1_1_13_p2 SB_1_1_14_p0 SB_1_1_14_p1 SB_1_1_14_p2 SB_1_1_15_p0 SB_1_1_15_p1 SB_1_1_15_p2 SB_1_1_1_p0 SB_1_1_1_p1 SB_1_1_1_p2 SB_1_1_2_p0 SB_1_1_2_p1 SB_1_1_2_p2 SB_1_1_3_p0 SB_1_1_3_p1 SB_1_1_3_p2 SB_1_1_4_p0 SB_1_1_4_p1 SB_1_1_4_p2 SB_1_1_5_p0 SB_1_1_5_p1 SB_1_1_5_p2 SB_1_1_6_p0 SB_1_1_6_p1 SB_1_1_6_p2 SB_1_1_7_p0 SB_1_1_7_p1 SB_1_1_7_p2 SB_1_1_8_p0 SB_1_1_8_p1 SB_1_1_8_p2 SB_1_1_9_p0 SB_1_1_9_p1 SB_1_1_9_p2 in0 in1 in10 in11 in12 in13 in14 in15 in16 in17 in18 in19 in2 in20 in21 in22 in23 in24 in25 in26 in27 in28 in29 in3 in30 in31 in32 in33 in34 in35 in36 in37 in38 in39 in4 in40 in41 in42 in43 in44 in45 in46 in47 in48 in49 in5 in50 in51 in52 in53 in54 in55 in56 in57 in58 in59 in6 in60 in61 in62 in63 in7 in8 in9 out0 out1 out10 out11 out12 out13 out14 out15 out16 out17 out18 out19 out2 out20 out21 out22 out23 out24 out25 out26 out27 out28 out29 out3 out30 out31 out32 out33 out34 out35 out36 out37 out38 out39 out4 out40 out41 out42 out43 out44 out45 out46 out47 out48 out49 out5 out50 out51 out52 out53 out54 out55 out56 out57 out58 out59 out6 out60 out61 out62 out63 out7 out8 out9 v_1_0_0 v_1_0_1 v_1_0_10 v_1_0_11 v_1_0_12 v_1_0_13 v_1_0_14 v_1_0_15 v_1_0_16 v_1_0_17 v_1_0_18 v_1_0_19 v_1_0_2 v_1_0_20 v_1_0_21 v_1_0_22 v_1_0_23 v_1_0_24 v_1_0_25 v_1_0_26 v_1_0_27 v_1_0_28 v_1_0_29 v_1_0_3 v_1_0_30 v_1_0_31 v_1_0_32 v_1_0_33 v_1_0_34 v_1_0_35 v_1_0_36 v_1_0_37 v_1_0_38 v_1_0_39 v_1_0_4 v_1_0_40 v_1_0_41 v_1_0_42 v_1_0_43 v_1_0_44 v_1_0_45 v_1_0_46 v_1_0_47 v_1_0_48 v_1_0_49 v_1_0_5 v_1_0_50 v_1_0_51 v_1_0_52 v_1_0_53 v_1_0_54 v_1_0_55 v_1_0_56 v_1_0_57 v_1_0_58 v_1_0_59 v_1_0_6 v_1_0_60 v_1_0_61 v_1_0_62 v_1_0_63 v_1_0_7 v_1_0_8 v_1_0_9 v_1_1_0 v_1_1_1 v_1_1_10 v_1_1_11 v_1_1_12 v_1_1_13 v_1_1_14 v_1_1_15 v_1_1_16 v_1_1_17 v_1_1_18 v_1_1_19 v_1_1_2 v_1_1_20 v_1_1_21 v_1_1_22 v_1_1_23 v_1_1_24 v_1_1_25 v_1_1_26 v_1_1_27 v_1_1_28 v_1_1_29 v_1_1_3 v_1_1_30 v_1_1_31 v_1_1_32 v_1_1_33 v_1_1_34 v_1_1_35 v_1_1_36 v_1_1_37 v_1_1_38 v_1_1_39 v_1_1_4 v_1_1_40 v_1_1_41 v_1_1_42 v_1_1_43 v_1_1_44 v_1_1_45 v_1_1_46 v_1_1_47 v_1_1_48 v_1_1_49 v_1_1_5 v_1_1_50 v_1_1_51 v_1_1_52 v_1_1_53 v_1_1_54 v_1_1_55 v_1_1_56 v_1_1_57 v_1_1_58 v_1_1_59 v_1_1_6 v_1_1_60 v_1_1_61 v_1_1_62 v_1_1_63 v_1_1_7 v_1_1_8 v_1_1_9 v_1_2_0 v_1_2_1 v_1_2_10 v_1_2_11 v_1_2_12 v_1_2_13 v_1_2_14 v_1_2_15 v_1_2_16 v_1_2_17 v_1_2_18 v_1_2_19 v_1_2_2 v_1_2_20 v_1_2_21 v_1_2_22 v_1_2_23 v_1_2_24 v_1_2_25 v_1_2_26 v_1_2_27 v_1_2_28 v_1_2_29 v_1_2_3 v_1_2_30 v_1_2_31 v_1_2_32 v_1_2_33 v_1_2_34 v_1_2_35 v_1_2_36 v_1_2_37 v_1_2_38 v_1_2_39 v_1_2_4 v_1_2_40 v_1_2_41 v_1_2_42 v_1_2_43 v_1_2_44 v_1_2_45 v_1_2_46 v_1_2_47 v_1_2_48 v_1_2_49 v_1_2_5 v_1_2_50 v_1_2_51 v_1_2_52 v_1_2_53 v_1_2_54 v_1_2_55 v_1_2_56 v_1_2_57 v_1_2_58 v_1_2_59 v_1_2_6 v_1_2_60 v_1_2_61 v_1_2_62 v_1_2_63 v_1_2_7 v_1_2_8 v_1_2_9 v_1_3_0 v_1_3_1 v_1_3_10 v_1_3_11 v_1_3_12 v_1_3_13 v_1_3_14 v_1_3_15 v_1_3_16 v_1_3_17 v_1_3_18 v_1_3_19 v_1_3_2 v_1_3_20 v_1_3_21 v_1_3_22 v_1_3_23 v_1_3_24 v_1_3_25 v_1_3_26 v_1_3_27 v_1_3_28 v_1_3_29 v_1_3_3 v_1_3_30 v_1_3_31 v_1_3_32 v_1_3_33 v_1_3_34 v_1_3_35 v_1_3_36 v_1_3_37 v_1_3_38 v_1_3_39 v_1_3_4 v_1_3_40 v_1_3_41 v_1_3_42 v_1_3_43 v_1_3_44 v_1_3_45 v_1_3_46 v_1_3_47 v_1_3_48 v_1_3_49 v_1_3_5 v_1_3_50 v_1_3_51 v_1_3_52 v_1_3_53 v_1_3_54 v_1_3_55 v_1_3_56 v_1_3_57 v_1_3_58 v_1_3_59 v_1_3_6 v_1_3_60 v_1_3_61 v_1_3_62 v_1_3_63 v_1_3_7 v_1_3_8 v_1_3_9
End
