p cnf 721 1927
178 179 186 187 188 189 190 191 192 193 180 181 182 183 184 185 194 195 202 203 204 205 206 207 208 209 196 197 198 199 200 201 0
-178 242 0
178 -242 0
-179 243 0
179 -243 0
-186 250 0
186 -250 0
-187 251 0
187 -251 0
-188 252 0
188 -252 0
-189 253 0
189 -253 0
-190 254 0
190 -254 0
-191 255 0
191 -255 0
-192 256 0
192 -256 0
-193 257 0
193 -257 0
-180 244 0
180 -244 0
-181 245 0
181 -245 0
-182 246 0
182 -246 0
-183 247 0
183 -247 0
-184 248 0
184 -248 0
-185 249 0
185 -249 0
-194 258 0
194 -258 0
-195 259 0
195 -259 0
-202 266 0
202 -266 0
-203 267 0
203 -267 0
-204 268 0
204 -268 0
-205 269 0
205 -269 0
-206 270 0
206 -270 0
-207 271 0
207 -271 0
-208 272 0
208 -272 0
-209 273 0
209 -273 0
-196 260 0
196 -260 0
-197 261 0
197 -261 0
-198 262 0
198 -262 0
-199 263 0
199 -263 0
-200 264 0
200 -264 0
-201 265 0
201 -265 0
-690 210 0
690 -210 0
-691 211 0
691 -211 0
-698 218 0
698 -218 0
-699 219 0
699 -219 0
-700 220 0
700 -220 0
-701 221 0
701 -221 0
-702 222 0
702 -222 0
-703 223 0
703 -223 0
-704 224 0
704 -224 0
-705 225 0
705 -225 0
-692 212 0
692 -212 0
-693 213 0
693 -213 0
-694 214 0
694 -214 0
-695 215 0
695 -215 0
-696 216 0
696 -216 0
-697 217 0
697 -217 0
-706 226 0
706 -226 0
-707 227 0
707 -227 0
-714 234 0
714 -234 0
-715 235 0
715 -235 0
-716 236 0
716 -236 0
-717 237 0
717 -237 0
-718 238 0
718 -238 0
-719 239 0
719 -239 0
-720 240 0
720 -240 0
-721 241 0
721 -241 0
-708 228 0
708 -228 0
-709 229 0
709 -229 0
-710 230 0
710 -230 0
-711 231 0
711 -231 0
-712 232 0
712 -232 0
-713 233 0
713 -233 0
-242 287 0
242 -287 0
-243 288 0
243 -288 0
-250 289 0
250 -289 0
-251 276 0
251 -276 0
-252 277 0
252 -277 0
-253 278 0
253 -278 0
-254 279 0
254 -279 0
-255 280 0
255 -280 0
-256 281 0
256 -281 0
-257 274 0
257 -274 0
-244 275 0
244 -275 0
-245 282 0
245 -282 0
-246 283 0
246 -283 0
-247 284 0
247 -284 0
-248 285 0
248 -285 0
-249 286 0
249 -286 0
-258 290 0
258 -290 0
-259 291 0
259 -291 0
-266 298 0
266 -298 0
-267 299 0
267 -299 0
-268 300 0
268 -300 0
-269 301 0
269 -301 0
-270 302 0
270 -302 0
-271 303 0
271 -303 0
-272 304 0
272 -304 0
-273 305 0
273 -305 0
-260 292 0
260 -292 0
-261 293 0
261 -293 0
-262 294 0
262 -294 0
-263 295 0
263 -295 0
-264 296 0
264 -296 0
-265 297 0
265 -297 0
274 290 -306 275 291 307 0
274 -290 306 275 291 307 0
-274 290 306 275 291 307 0
-274 -290 -306 275 291 307 0
274 290 306 -275 -291 -307 0
274 -290 -306 -275 -291 -307 0
-274 290 -306 -275 -291 -307 0
-274 -290 306 -275 -291 -307 0
275 291 -307 282 298 314 0
275 -291 307 282 298 314 0
-275 291 307 282 298 314 0
-275 -291 -307 282 298 314 0
275 291 307 -282 -298 -314 0
275 -291 -307 -282 -298 -314 0
-275 291 -307 -282 -298 -314 0
-275 -291 307 -282 -298 -314 0
282 298 -314 283 299 315 0
282 -298 314 283 299 315 0
-282 298 314 283 299 315 0
-282 -298 -314 283 299 315 0
282 298 314 -283 -299 -315 0
282 -298 -314 -283 -299 -315 0
-282 298 -314 -283 -299 -315 0
-282 -298 314 -283 -299 -315 0
283 299 -315 284 300 316 0
283 -299 315 284 300 316 0
-283 299 315 284 300 316 0
-283 -299 -315 284 300 316 0
283 299 315 -284 -300 -316 0
283 -299 -315 -284 -300 -316 0
-283 299 -315 -284 -300 -316 0
-283 -299 315 -284 -300 -316 0
284 300 -316 285 301 317 0
284 -300 316 285 301 317 0
-284 300 316 285 301 317 0
-284 -300 -316 285 301 317 0
284 300 316 -285 -301 -317 0
284 -300 -316 -285 -301 -317 0
-284 300 -316 -285 -301 -317 0
-284 -300 316 -285 -301 -317 0
285 301 -317 286 302 318 0
285 -301 317 286 302 318 0
-285 301 317 286 302 318 0
-285 -301 -317 286 302 318 0
285 301 317 -286 -302 -318 0
285 -301 -317 -286 -302 -318 0
-285 301 -317 -286 -302 -318 0
-285 -301 317 -286 -302 -318 0
286 302 -318 287 303 319 0
286 -302 318 287 303 319 0
-286 302 318 287 303 319 0
-286 -302 -318 287 303 319 0
286 302 318 -287 -303 -319 0
286 -302 -318 -287 -303 -319 0
-286 302 -318 -287 -303 -319 0
-286 -302 318 -287 -303 -319 0
287 303 -319 288 304 320 0
287 -303 319 288 304 320 0
-287 303 319 288 304 320 0
-287 -303 -319 288 304 320 0
287 303 319 -288 -304 -320 0
287 -303 -319 -288 -304 -320 0
-287 303 -319 -288 -304 -320 0
-287 -303 319 -288 -304 -320 0
288 304 -320 289 305 321 0
288 -304 320 289 305 321 0
-288 304 320 289 305 321 0
-288 -304 -320 289 305 321 0
288 304 320 -289 -305 -321 0
288 -304 -320 -289 -305 -321 0
-288 304 -320 -289 -305 -321 0
-288 -304 320 -289 -305 -321 0
289 305 -321 276 292 308 0
289 -305 321 276 292 308 0
-289 305 321 276 292 308 0
-289 -305 -321 276 292 308 0
289 305 321 -276 -292 -308 0
289 -305 -321 -276 -292 -308 0
-289 305 -321 -276 -292 -308 0
-289 -305 321 -276 -292 -308 0
276 292 -308 277 293 309 0
276 -292 308 277 293 309 0
-276 292 308 277 293 309 0
-276 -292 -308 277 293 309 0
276 292 308 -277 -293 -309 0
276 -292 -308 -277 -293 -309 0
-276 292 -308 -277 -293 -309 0
-276 -292 308 -277 -293 -309 0
277 293 -309 278 294 310 0
277 -293 309 278 294 310 0
-277 293 309 278 294 310 0
-277 -293 -309 278 294 310 0
277 293 309 -278 -294 -310 0
277 -293 -309 -278 -294 -310 0
-277 293 -309 -278 -294 -310 0
-277 -293 309 -278 -294 -310 0
278 294 -310 279 295 311 0
278 -294 310 279 295 311 0
-278 294 310 279 295 311 0
-278 -294 -310 279 295 311 0
278 294 310 -279 -295 -311 0
278 -294 -310 -279 -295 -311 0
-278 294 -310 -279 -295 -311 0
-278 -294 310 -279 -295 -311 0
279 295 -311 280 296 312 0
279 -295 311 280 296 312 0
-279 295 311 280 296 312 0
-279 -295 -311 280 296 312 0
279 295 311 -280 -296 -312 0
279 -295 -311 -280 -296 -312 0
-279 295 -311 -280 -296 -312 0
-279 -295 311 -280 -296 -312 0
280 296 -312 281 297 313 0
280 -296 312 281 297 313 0
-280 296 312 281 297 313 0
-280 -296 -312 281 297 313 0
280 296 312 -281 -297 -313 0
280 -296 -312 -281 -297 -313 0
-280 296 -312 -281 -297 -313 0
-280 -296 312 -281 -297 -313 0
281 297 -313 0
281 -297 313 0
-281 297 313 0
-281 -297 -313 0
-275 307 1 0
291 -307 1 0
275 -291 1 0
275 291 307 -1 0
-275 -291 -307 -1 0
-282 314 2 0
298 -314 2 0
282 -298 2 0
282 298 314 -2 0
-282 -298 -314 -2 0
-283 315 8 0
299 -315 8 0
283 -299 8 0
283 299 315 -8 0
-283 -299 -315 -8 0
-284 316 9 0
300 -316 9 0
284 -300 9 0
284 300 316 -9 0
-284 -300 -316 -9 0
-285 317 10 0
301 -317 10 0
285 -301 10 0
285 301 317 -10 0
-285 -301 -317 -10 0
-286 318 11 0
302 -318 11 0
286 -302 11 0
286 302 318 -11 0
-286 -302 -318 -11 0
-287 319 12 0
303 -319 12 0
287 -303 12 0
287 303 319 -12 0
-287 -303 -319 -12 0
-288 320 13 0
304 -320 13 0
288 -304 13 0
288 304 320 -13 0
-288 -304 -320 -13 0
-289 321 14 0
305 -321 14 0
289 -305 14 0
289 305 321 -14 0
-289 -305 -321 -14 0
-276 308 15 0
292 -308 15 0
276 -292 15 0
276 292 308 -15 0
-276 -292 -308 -15 0
-277 309 3 0
293 -309 3 0
277 -293 3 0
277 293 309 -3 0
-277 -293 -309 -3 0
-278 310 4 0
294 -310 4 0
278 -294 4 0
278 294 310 -4 0
-278 -294 -310 -4 0
-279 311 5 0
295 -311 5 0
279 -295 5 0
279 295 311 -5 0
-279 -295 -311 -5 0
-280 312 6 0
296 -312 6 0
280 -296 6 0
280 296 312 -6 0
-280 -296 -312 -6 0
-281 313 7 0
297 -313 7 0
281 -297 7 0
281 297 313 -7 0
-281 -297 -313 -7 0
-290 322 0
290 -322 0
-291 323 0
291 -323 0
-298 330 0
298 -330 0
-299 331 0
299 -331 0
-300 332 0
300 -332 0
-301 333 0
301 -333 0
-302 334 0
302 -334 0
-303 335 0
303 -335 0
-304 336 0
304 -336 0
-305 337 0
305 -337 0
-292 324 0
292 -324 0
-293 325 0
293 -325 0
-294 326 0
294 -326 0
-295 327 0
295 -327 0
-296 328 0
296 -328 0
-297 329 0
297 -329 0
-306 338 0
306 -338 0
-307 339 0
307 -339 0
-314 346 0
314 -346 0
-315 347 0
315 -347 0
-316 348 0
316 -348 0
-317 349 0
317 -349 0
-318 350 0
318 -350 0
-319 351 0
319 -351 0
-320 352 0
320 -352 0
-321 353 0
321 -353 0
-308 340 0
308 -340 0
-309 341 0
309 -341 0
-310 342 0
310 -342 0
-311 343 0
311 -343 0
-312 344 0
312 -344 0
-313 345 0
313 -345 0
-330 354 0
330 -354 0
-331 355 0
331 -355 0
-332 362 0
332 -362 0
-333 363 0
333 -363 0
-334 364 0
334 -364 0
-335 365 0
335 -365 0
-336 366 0
336 -366 0
-337 367 0
337 -367 0
-324 368 0
324 -368 0
-325 369 0
325 -369 0
-326 356 0
326 -356 0
-327 357 0
327 -357 0
-328 358 0
328 -358 0
-329 359 0
329 -359 0
-322 360 0
322 -360 0
-323 361 0
323 -361 0
-338 370 0
338 -370 0
-339 371 0
339 -371 0
-346 378 0
346 -378 0
-347 379 0
347 -379 0
-348 380 0
348 -380 0
-349 381 0
349 -381 0
-350 382 0
350 -382 0
-351 383 0
351 -383 0
-352 384 0
352 -384 0
-353 385 0
353 -385 0
-340 372 0
340 -372 0
-341 373 0
341 -373 0
-342 374 0
342 -374 0
-343 375 0
343 -375 0
-344 376 0
344 -376 0
-345 377 0
345 -377 0
338 354 -386 0
338 -354 386 0
-338 354 386 0
-338 -354 -386 0
339 355 -387 0
339 -355 387 0
-339 355 387 0
-339 -355 -387 0
346 362 -394 0
346 -362 394 0
-346 362 394 0
-346 -362 -394 0
347 363 -395 0
347 -363 395 0
-347 363 395 0
-347 -363 -395 0
348 364 -396 0
348 -364 396 0
-348 364 396 0
-348 -364 -396 0
349 365 -397 0
349 -365 397 0
-349 365 397 0
-349 -365 -397 0
350 366 -398 0
350 -366 398 0
-350 366 398 0
-350 -366 -398 0
351 367 -399 0
351 -367 399 0
-351 367 399 0
-351 -367 -399 0
352 368 -400 0
352 -368 400 0
-352 368 400 0
-352 -368 -400 0
353 369 -401 0
353 -369 401 0
-353 369 401 0
-353 -369 -401 0
340 356 -388 0
340 -356 388 0
-340 356 388 0
-340 -356 -388 0
341 357 -389 0
341 -357 389 0
-341 357 389 0
-341 -357 -389 0
342 358 -390 0
342 -358 390 0
-342 358 390 0
-342 -358 -390 0
343 359 -391 0
343 -359 391 0
-343 359 391 0
-343 -359 -391 0
344 360 -392 0
344 -360 392 0
-344 360 392 0
-344 -360 -392 0
345 361 -393 0
345 -361 393 0
-345 361 393 0
-345 -361 -393 0
-370 402 0
370 -402 0
-371 403 0
371 -403 0
-378 410 0
378 -410 0
-379 411 0
379 -411 0
-380 412 0
380 -412 0
-381 413 0
381 -413 0
-382 414 0
382 -414 0
-383 415 0
383 -415 0
-384 416 0
384 -416 0
-385 417 0
385 -417 0
-372 404 0
372 -404 0
-373 405 0
373 -405 0
-374 406 0
374 -406 0
-375 407 0
375 -407 0
-376 408 0
376 -408 0
-377 409 0
377 -409 0
-386 418 0
386 -418 0
-387 419 0
387 -419 0
-394 426 0
394 -426 0
-395 427 0
395 -427 0
-396 428 0
396 -428 0
-397 429 0
397 -429 0
-398 430 0
398 -430 0
-399 431 0
399 -431 0
-400 432 0
400 -432 0
-401 433 0
401 -433 0
-388 420 0
388 -420 0
-389 421 0
389 -421 0
-390 422 0
390 -422 0
-391 423 0
391 -423 0
-392 424 0
392 -424 0
-393 425 0
393 -425 0
-402 447 0
402 -447 0
-403 448 0
403 -448 0
-410 449 0
410 -449 0
-411 436 0
411 -436 0
-412 437 0
412 -437 0
-413 438 0
413 -438 0
-414 439 0
414 -439 0
-415 440 0
415 -440 0
-416 441 0
416 -441 0
-417 434 0
417 -434 0
-404 435 0
404 -435 0
-405 442 0
405 -442 0
-406 443 0
406 -443 0
-407 444 0
407 -444 0
-408 445 0
408 -445 0
-409 446 0
409 -446 0
-418 450 0
418 -450 0
-419 451 0
419 -451 0
-426 458 0
426 -458 0
-427 459 0
427 -459 0
-428 460 0
428 -460 0
-429 461 0
429 -461 0
-430 462 0
430 -462 0
-431 463 0
431 -463 0
-432 464 0
432 -464 0
-433 465 0
433 -465 0
-420 452 0
420 -452 0
-421 453 0
421 -453 0
-422 454 0
422 -454 0
-423 455 0
423 -455 0
-424 456 0
424 -456 0
-425 457 0
425 -457 0
434 450 -466 435 451 467 0
434 -450 466 435 451 467 0
-434 450 466 435 451 467 0
-434 -450 -466 435 451 467 0
434 450 466 -435 -451 -467 0
434 -450 -466 -435 -451 -467 0
-434 450 -466 -435 -451 -467 0
-434 -450 466 -435 -451 -467 0
435 451 -467 442 458 474 0
435 -451 467 442 458 474 0
-435 451 467 442 458 474 0
-435 -451 -467 442 458 474 0
435 451 467 -442 -458 -474 0
435 -451 -467 -442 -458 -474 0
-435 451 -467 -442 -458 -474 0
-435 -451 467 -442 -458 -474 0
442 458 -474 443 459 475 0
442 -458 474 443 459 475 0
-442 458 474 443 459 475 0
-442 -458 -474 443 459 475 0
442 458 474 -443 -459 -475 0
442 -458 -474 -443 -459 -475 0
-442 458 -474 -443 -459 -475 0
-442 -458 474 -443 -459 -475 0
443 459 -475 444 460 476 0
443 -459 475 444 460 476 0
-443 459 475 444 460 476 0
-443 -459 -475 444 460 476 0
443 459 475 -444 -460 -476 0
443 -459 -475 -444 -460 -476 0
-443 459 -475 -444 -460 -476 0
-443 -459 475 -444 -460 -476 0
444 460 -476 445 461 477 0
444 -460 476 445 461 477 0
-444 460 476 445 461 477 0
-444 -460 -476 445 461 477 0
444 460 476 -445 -461 -477 0
444 -460 -476 -445 -461 -477 0
-444 460 -476 -445 -461 -477 0
-444 -460 476 -445 -461 -477 0
445 461 -477 446 462 478 0
445 -461 477 446 462 478 0
-445 461 477 446 462 478 0
-445 -461 -477 446 462 478 0
445 461 477 -446 -462 -478 0
445 -461 -477 -446 -462 -478 0
-445 461 -477 -446 -462 -478 0
-445 -461 477 -446 -462 -478 0
446 462 -478 447 463 479 0
446 -462 478 447 463 479 0
-446 462 478 447 463 479 0
-446 -462 -478 447 463 479 0
446 462 478 -447 -463 -479 0
446 -462 -478 -447 -463 -479 0
-446 462 -478 -447 -463 -479 0
-446 -462 478 -447 -463 -479 0
447 463 -479 448 464 480 0
447 -463 479 448 464 480 0
-447 463 479 448 464 480 0
-447 -463 -479 448 464 480 0
447 463 479 -448 -464 -480 0
447 -463 -479 -448 -464 -480 0
-447 463 -479 -448 -464 -480 0
-447 -463 479 -448 -464 -480 0
448 464 -480 449 465 481 0
448 -464 480 449 465 481 0
-448 464 480 449 465 481 0
-448 -464 -480 449 465 481 0
448 464 480 -449 -465 -481 0
448 -464 -480 -449 -465 -481 0
-448 464 -480 -449 -465 -481 0
-448 -464 480 -449 -465 -481 0
449 465 -481 436 452 468 0
449 -465 481 436 452 468 0
-449 465 481 436 452 468 0
-449 -465 -481 436 452 468 0
449 465 481 -436 -452 -468 0
449 -465 -481 -436 -452 -468 0
-449 465 -481 -436 -452 -468 0
-449 -465 481 -436 -452 -468 0
436 452 -468 437 453 469 0
436 -452 468 437 453 469 0
-436 452 468 437 453 469 0
-436 -452 -468 437 453 469 0
436 452 468 -437 -453 -469 0
436 -452 -468 -437 -453 -469 0
-436 452 -468 -437 -453 -469 0
-436 -452 468 -437 -453 -469 0
437 453 -469 438 454 470 0
437 -453 469 438 454 470 0
-437 453 469 438 454 470 0
-437 -453 -469 438 454 470 0
437 453 469 -438 -454 -470 0
437 -453 -469 -438 -454 -470 0
-437 453 -469 -438 -454 -470 0
-437 -453 469 -438 -454 -470 0
438 454 -470 439 455 471 0
438 -454 470 439 455 471 0
-438 454 470 439 455 471 0
-438 -454 -470 439 455 471 0
438 454 470 -439 -455 -471 0
438 -454 -470 -439 -455 -471 0
-438 454 -470 -439 -455 -471 0
-438 -454 470 -439 -455 -471 0
439 455 -471 440 456 472 0
439 -455 471 440 456 472 0
-439 455 471 440 456 472 0
-439 -455 -471 440 456 472 0
439 455 471 -440 -456 -472 0
439 -455 -471 -440 -456 -472 0
-439 455 -471 -440 -456 -472 0
-439 -455 471 -440 -456 -472 0
440 456 -472 441 457 473 0
440 -456 472 441 457 473 0
-440 456 472 441 457 473 0
-440 -456 -472 441 457 473 0
440 456 472 -441 -457 -473 0
440 -456 -472 -441 -457 -473 0
-440 456 -472 -441 -457 -473 0
-440 -456 472 -441 -457 -473 0
441 457 -473 0
441 -457 473 0
-441 457 473 0
-441 -457 -473 0
-435 467 16 0
451 -467 16 0
435 -451 16 0
435 451 467 -16 0
-435 -451 -467 -16 0
-442 474 17 0
458 -474 17 0
442 -458 17 0
442 458 474 -17 0
-442 -458 -474 -17 0
-443 475 23 0
459 -475 23 0
443 -459 23 0
443 459 475 -23 0
-443 -459 -475 -23 0
-444 476 24 0
460 -476 24 0
444 -460 24 0
444 460 476 -24 0
-444 -460 -476 -24 0
-445 477 25 0
461 -477 25 0
445 -461 25 0
445 461 477 -25 0
-445 -461 -477 -25 0
-446 478 26 0
462 -478 26 0
446 -462 26 0
446 462 478 -26 0
-446 -462 -478 -26 0
-447 479 27 0
463 -479 27 0
447 -463 27 0
447 463 479 -27 0
-447 -463 -479 -27 0
-448 480 28 0
464 -480 28 0
448 -464 28 0
448 464 480 -28 0
-448 -464 -480 -28 0
-449 481 29 0
465 -481 29 0
449 -465 29 0
449 465 481 -29 0
-449 -465 -481 -29 0
-436 468 30 0
452 -468 30 0
436 -452 30 0
436 452 468 -30 0
-436 -452 -468 -30 0
-437 469 18 0
453 -469 18 0
437 -453 18 0
437 453 469 -18 0
-437 -453 -469 -18 0
-438 470 19 0
454 -470 19 0
438 -454 19 0
438 454 470 -19 0
-438 -454 -470 -19 0
-439 471 20 0
455 -471 20 0
439 -455 20 0
439 455 471 -20 0
-439 -455 -471 -20 0
-440 472 21 0
456 -472 21 0
440 -456 21 0
440 456 472 -21 0
-440 -456 -472 -21 0
-441 473 22 0
457 -473 22 0
441 -457 22 0
441 457 473 -22 0
-441 -457 -473 -22 0
-450 482 0
450 -482 0
-451 483 0
451 -483 0
-458 490 0
458 -490 0
-459 491 0
459 -491 0
-460 492 0
460 -492 0
-461 493 0
461 -493 0
-462 494 0
462 -494 0
-463 495 0
463 -495 0
-464 496 0
464 -496 0
-465 497 0
465 -497 0
-452 484 0
452 -484 0
-453 485 0
453 -485 0
-454 486 0
454 -486 0
-455 487 0
455 -487 0
-456 488 0
456 -488 0
-457 489 0
457 -489 0
-466 498 0
466 -498 0
-467 499 0
467 -499 0
-474 506 0
474 -506 0
-475 507 0
475 -507 0
-476 508 0
476 -508 0
-477 509 0
477 -509 0
-478 510 0
478 -510 0
-479 511 0
479 -511 0
-480 512 0
480 -512 0
-481 513 0
481 -513 0
-468 500 0
468 -500 0
-469 501 0
469 -501 0
-470 502 0
470 -502 0
-471 503 0
471 -503 0
-472 504 0
472 -504 0
-473 505 0
473 -505 0
-490 514 0
490 -514 0
-491 515 0
491 -515 0
-492 522 0
492 -522 0
-493 523 0
493 -523 0
-494 524 0
494 -524 0
-495 525 0
495 -525 0
-496 526 0
496 -526 0
-497 527 0
497 -527 0
-484 528 0
484 -528 0
-485 529 0
485 -529 0
-486 516 0
486 -516 0
-487 517 0
487 -517 0
-488 518 0
488 -518 0
-489 519 0
489 -519 0
-482 520 0
482 -520 0
-483 521 0
483 -521 0
-498 530 0
498 -530 0
-499 531 0
499 -531 0
-506 538 0
506 -538 0
-507 539 0
507 -539 0
-508 540 0
508 -540 0
-509 541 0
509 -541 0
-510 542 0
510 -542 0
-511 543 0
511 -543 0
-512 544 0
512 -544 0
-513 545 0
513 -545 0
-500 532 0
500 -532 0
-501 533 0
501 -533 0
-502 534 0
502 -534 0
-503 535 0
503 -535 0
-504 536 0
504 -536 0
-505 537 0
505 -537 0
498 514 -546 0
498 -514 546 0
-498 514 546 0
-498 -514 -546 0
499 515 -547 0
499 -515 547 0
-499 515 547 0
-499 -515 -547 0
506 522 -554 0
506 -522 554 0
-506 522 554 0
-506 -522 -554 0
507 523 -555 0
507 -523 555 0
-507 523 555 0
-507 -523 -555 0
508 524 -556 0
508 -524 556 0
-508 524 556 0
-508 -524 -556 0
509 525 -557 0
509 -525 557 0
-509 525 557 0
-509 -525 -557 0
510 526 -558 0
510 -526 558 0
-510 526 558 0
-510 -526 -558 0
511 527 -559 0
511 -527 559 0
-511 527 559 0
-511 -527 -559 0
512 528 -560 0
512 -528 560 0
-512 528 560 0
-512 -528 -560 0
513 529 -561 0
513 -529 561 0
-513 529 561 0
-513 -529 -561 0
500 516 -548 0
500 -516 548 0
-500 516 548 0
-500 -516 -548 0
501 517 -549 0
501 -517 549 0
-501 517 549 0
-501 -517 -549 0
502 518 -550 0
502 -518 550 0
-502 518 550 0
-502 -518 -550 0
503 519 -551 0
503 -519 551 0
-503 519 551 0
-503 -519 -551 0
504 520 -552 0
504 -520 552 0
-504 520 552 0
-504 -520 -552 0
505 521 -553 0
505 -521 553 0
-505 521 553 0
-505 -521 -553 0
-530 562 0
530 -562 0
-531 563 0
531 -563 0
-538 570 0
538 -570 0
-539 571 0
539 -571 0
-540 572 0
540 -572 0
-541 573 0
541 -573 0
-542 574 0
542 -574 0
-543 575 0
543 -575 0
-544 576 0
544 -576 0
-545 577 0
545 -577 0
-532 564 0
532 -564 0
-533 565 0
533 -565 0
-534 566 0
534 -566 0
-535 567 0
535 -567 0
-536 568 0
536 -568 0
-537 569 0
537 -569 0
-546 578 0
546 -578 0
-547 579 0
547 -579 0
-554 586 0
554 -586 0
-555 587 0
555 -587 0
-556 588 0
556 -588 0
-557 589 0
557 -589 0
-558 590 0
558 -590 0
-559 591 0
559 -591 0
-560 592 0
560 -592 0
-561 593 0
561 -593 0
-548 580 0
548 -580 0
-549 581 0
549 -581 0
-550 582 0
550 -582 0
-551 583 0
551 -583 0
-552 584 0
552 -584 0
-553 585 0
553 -585 0
-562 607 0
562 -607 0
-563 608 0
563 -608 0
-570 609 0
570 -609 0
-571 596 0
571 -596 0
-572 597 0
572 -597 0
-573 598 0
573 -598 0
-574 599 0
574 -599 0
-575 600 0
575 -600 0
-576 601 0
576 -601 0
-577 594 0
577 -594 0
-564 595 0
564 -595 0
-565 602 0
565 -602 0
-566 603 0
566 -603 0
-567 604 0
567 -604 0
-568 605 0
568 -605 0
-569 606 0
569 -606 0
-578 610 0
578 -610 0
-579 611 0
579 -611 0
-586 618 0
586 -618 0
-587 619 0
587 -619 0
-588 620 0
588 -620 0
-589 621 0
589 -621 0
-590 622 0
590 -622 0
-591 623 0
591 -623 0
-592 624 0
592 -624 0
-593 625 0
593 -625 0
-580 612 0
580 -612 0
-581 613 0
581 -613 0
-582 614 0
582 -614 0
-583 615 0
583 -615 0
-584 616 0
584 -616 0
-585 617 0
585 -617 0
594 610 -626 595 611 627 0
594 -610 626 595 611 627 0
-594 610 626 595 611 627 0
-594 -610 -626 595 611 627 0
594 610 626 -595 -611 -627 0
594 -610 -626 -595 -611 -627 0
-594 610 -626 -595 -611 -627 0
-594 -610 626 -595 -611 -627 0
595 611 -627 602 618 634 0
595 -611 627 602 618 634 0
-595 611 627 602 618 634 0
-595 -611 -627 602 618 634 0
595 611 627 -602 -618 -634 0
595 -611 -627 -602 -618 -634 0
-595 611 -627 -602 -618 -634 0
-595 -611 627 -602 -618 -634 0
602 618 -634 603 619 635 0
602 -618 634 603 619 635 0
-602 618 634 603 619 635 0
-602 -618 -634 603 619 635 0
602 618 634 -603 -619 -635 0
602 -618 -634 -603 -619 -635 0
-602 618 -634 -603 -619 -635 0
-602 -618 634 -603 -619 -635 0
603 619 -635 604 620 636 0
603 -619 635 604 620 636 0
-603 619 635 604 620 636 0
-603 -619 -635 604 620 636 0
603 619 635 -604 -620 -636 0
603 -619 -635 -604 -620 -636 0
-603 619 -635 -604 -620 -636 0
-603 -619 635 -604 -620 -636 0
604 620 -636 605 621 637 0
604 -620 636 605 621 637 0
-604 620 636 605 621 637 0
-604 -620 -636 605 621 637 0
604 620 636 -605 -621 -637 0
604 -620 -636 -605 -621 -637 0
-604 620 -636 -605 -621 -637 0
-604 -620 636 -605 -621 -637 0
605 621 -637 606 622 638 0
605 -621 637 606 622 638 0
-605 621 637 606 622 638 0
-605 -621 -637 606 622 638 0
605 621 637 -606 -622 -638 0
605 -621 -637 -606 -622 -638 0
-605 621 -637 -606 -622 -638 0
-605 -621 637 -606 -622 -638 0
606 622 -638 607 623 639 0
606 -622 638 607 623 639 0
-606 622 638 607 623 639 0
-606 -622 -638 607 623 639 0
606 622 638 -607 -623 -639 0
606 -622 -638 -607 -623 -639 0
-606 622 -638 -607 -623 -639 0
-606 -622 638 -607 -623 -639 0
607 623 -639 608 624 640 0
607 -623 639 608 624 640 0
-607 623 639 608 624 640 0
-607 -623 -639 608 624 640 0
607 623 639 -608 -624 -640 0
607 -623 -639 -608 -624 -640 0
-607 623 -639 -608 -624 -640 0
-607 -623 639 -608 -624 -640 0
608 624 -640 609 625 641 0
608 -624 640 609 625 641 0
-608 624 640 609 625 641 0
-608 -624 -640 609 625 641 0
608 624 640 -609 -625 -641 0
608 -624 -640 -609 -625 -641 0
-608 624 -640 -609 -625 -641 0
-608 -624 640 -609 -625 -641 0
609 625 -641 596 612 628 0
609 -625 641 596 612 628 0
-609 625 641 596 612 628 0
-609 -625 -641 596 612 628 0
609 625 641 -596 -612 -628 0
609 -625 -641 -596 -612 -628 0
-609 625 -641 -596 -612 -628 0
-609 -625 641 -596 -612 -628 0
596 612 -628 597 613 629 0
596 -612 628 597 613 629 0
-596 612 628 597 613 629 0
-596 -612 -628 597 613 629 0
596 612 628 -597 -613 -629 0
596 -612 -628 -597 -613 -629 0
-596 612 -628 -597 -613 -629 0
-596 -612 628 -597 -613 -629 0
597 613 -629 598 614 630 0
597 -613 629 598 614 630 0
-597 613 629 598 614 630 0
-597 -613 -629 598 614 630 0
597 613 629 -598 -614 -630 0
597 -613 -629 -598 -614 -630 0
-597 613 -629 -598 -614 -630 0
-597 -613 629 -598 -614 -630 0
598 614 -630 599 615 631 0
598 -614 630 599 615 631 0
-598 614 630 599 615 631 0
-598 -614 -630 599 615 631 0
598 614 630 -599 -615 -631 0
598 -614 -630 -599 -615 -631 0
-598 614 -630 -599 -615 -631 0
-598 -614 630 -599 -615 -631 0
599 615 -631 600 616 632 0
599 -615 631 600 616 632 0
-599 615 631 600 616 632 0
-599 -615 -631 600 616 632 0
599 615 631 -600 -616 -632 0
599 -615 -631 -600 -616 -632 0
-599 615 -631 -600 -616 -632 0
-599 -615 631 -600 -616 -632 0
600 616 -632 601 617 633 0
600 -616 632 601 617 633 0
-600 616 632 601 617 633 0
-600 -616 -632 601 617 633 0
600 616 632 -601 -617 -633 0
600 -616 -632 -601 -617 -633 0
-600 616 -632 -601 -617 -633 0
-600 -616 632 -601 -617 -633 0
601 617 -633 0
601 -617 633 0
-601 617 633 0
-601 -617 -633 0
-595 627 31 0
611 -627 31 0
595 -611 31 0
595 611 627 -31 0
-595 -611 -627 -31 0
-602 634 32 0
618 -634 32 0
602 -618 32 0
602 618 634 -32 0
-602 -618 -634 -32 0
-603 635 38 0
619 -635 38 0
603 -619 38 0
603 619 635 -38 0
-603 -619 -635 -38 0
-604 636 39 0
620 -636 39 0
604 -620 39 0
604 620 636 -39 0
-604 -620 -636 -39 0
-605 637 40 0
621 -637 40 0
605 -621 40 0
605 621 637 -40 0
-605 -621 -637 -40 0
-606 638 41 0
622 -638 41 0
606 -622 41 0
606 622 638 -41 0
-606 -622 -638 -41 0
-607 639 42 0
623 -639 42 0
607 -623 42 0
607 623 639 -42 0
-607 -623 -639 -42 0
-608 640 43 0
624 -640 43 0
608 -624 43 0
608 624 640 -43 0
-608 -624 -640 -43 0
-609 641 44 0
625 -641 44 0
609 -625 44 0
609 625 641 -44 0
-609 -625 -641 -44 0
-596 628 45 0
612 -628 45 0
596 -612 45 0
596 612 628 -45 0
-596 -612 -628 -45 0
-597 629 33 0
613 -629 33 0
597 -613 33 0
597 613 629 -33 0
-597 -613 -629 -33 0
-598 630 34 0
614 -630 34 0
598 -614 34 0
598 614 630 -34 0
-598 -614 -630 -34 0
-599 631 35 0
615 -631 35 0
599 -615 35 0
599 615 631 -35 0
-599 -615 -631 -35 0
-600 632 36 0
616 -632 36 0
600 -616 36 0
600 616 632 -36 0
-600 -616 -632 -36 0
-601 633 37 0
617 -633 37 0
601 -617 37 0
601 617 633 -37 0
-601 -617 -633 -37 0
-610 642 0
610 -642 0
-611 643 0
611 -643 0
-618 650 0
618 -650 0
-619 651 0
619 -651 0
-620 652 0
620 -652 0
-621 653 0
621 -653 0
-622 654 0
622 -654 0
-623 655 0
623 -655 0
-624 656 0
624 -656 0
-625 657 0
625 -657 0
-612 644 0
612 -644 0
-613 645 0
613 -645 0
-614 646 0
614 -646 0
-615 647 0
615 -647 0
-616 648 0
616 -648 0
-617 649 0
617 -649 0
-626 658 0
626 -658 0
-627 659 0
627 -659 0
-634 666 0
634 -666 0
-635 667 0
635 -667 0
-636 668 0
636 -668 0
-637 669 0
637 -669 0
-638 670 0
638 -670 0
-639 671 0
639 -671 0
-640 672 0
640 -672 0
-641 673 0
641 -673 0
-628 660 0
628 -660 0
-629 661 0
629 -661 0
-630 662 0
630 -662 0
-631 663 0
631 -663 0
-632 664 0
632 -664 0
-633 665 0
633 -665 0
-650 674 0
650 -674 0
-651 675 0
651 -675 0
-652 682 0
652 -682 0
-653 683 0
653 -683 0
-654 684 0
654 -684 0
-655 685 0
655 -685 0
-656 686 0
656 -686 0
-657 687 0
657 -687 0
-644 688 0
644 -688 0
-645 689 0
645 -689 0
-646 676 0
646 -676 0
-647 677 0
647 -677 0
-648 678 0
648 -678 0
-649 679 0
649 -679 0
-642 680 0
642 -680 0
-643 681 0
643 -681 0
-658 690 0
658 -690 0
-659 691 0
659 -691 0
-666 698 0
666 -698 0
-667 699 0
667 -699 0
-668 700 0
668 -700 0
-669 701 0
669 -701 0
-670 702 0
670 -702 0
-671 703 0
671 -703 0
-672 704 0
672 -704 0
-673 705 0
673 -705 0
-660 692 0
660 -692 0
-661 693 0
661 -693 0
-662 694 0
662 -694 0
-663 695 0
663 -695 0
-664 696 0
664 -696 0
-665 697 0
665 -697 0
658 674 -706 0
658 -674 706 0
-658 674 706 0
-658 -674 -706 0
659 675 -707 0
659 -675 707 0
-659 675 707 0
-659 -675 -707 0
666 682 -714 0
666 -682 714 0
-666 682 714 0
-666 -682 -714 0
667 683 -715 0
667 -683 715 0
-667 683 715 0
-667 -683 -715 0
668 684 -716 0
668 -684 716 0
-668 684 716 0
-668 -684 -716 0
669 685 -717 0
669 -685 717 0
-669 685 717 0
-669 -685 -717 0
670 686 -718 0
670 -686 718 0
-670 686 718 0
-670 -686 -718 0
671 687 -719 0
671 -687 719 0
-671 687 719 0
-671 -687 -719 0
672 688 -720 0
672 -688 720 0
-672 688 720 0
-672 -688 -720 0
673 689 -721 0
673 -689 721 0
-673 689 721 0
-673 -689 -721 0
660 676 -708 0
660 -676 708 0
-660 676 708 0
-660 -676 -708 0
661 677 -709 0
661 -677 709 0
-661 677 709 0
-661 -677 -709 0
662 678 -710 0
662 -678 710 0
-662 678 710 0
-662 -678 -710 0
663 679 -711 0
663 -679 711 0
-663 679 711 0
-663 -679 -711 0
664 680 -712 0
664 -680 712 0
-664 680 712 0
-664 -680 -712 0
665 681 -713 0
665 -681 713 0
-665 681 713 0
-665 -681 -713 0
-1 46 0
-47 0
-48 0
-2 79 0
-46 79 0
-2 -46 80 0
-2 -47 81 0
-47 80 0
-48 81 0
-2 -48 0
-8 112 0
-79 112 0
-8 -79 113 0
-8 -80 114 0
-80 113 0
-81 114 0
-8 -81 0
-9 145 0
-112 145 0
-9 -112 146 0
-9 -113 147 0
-113 146 0
-114 147 0
-9 -114 0
-10 160 0
-145 160 0
-10 -145 161 0
-10 -146 162 0
-146 161 0
-147 162 0
-10 -147 0
-11 163 0
-160 163 0
-11 -160 164 0
-11 -161 165 0
-161 164 0
-162 165 0
-11 -162 0
-12 166 0
-163 166 0
-12 -163 167 0
-12 -164 168 0
-164 167 0
-165 168 0
-12 -165 0
-13 169 0
-166 169 0
-13 -166 170 0
-13 -167 171 0
-167 170 0
-168 171 0
-13 -168 0
-14 172 0
-169 172 0
-14 -169 173 0
-14 -170 174 0
-170 173 0
-171 174 0
-14 -171 0
-15 175 0
-172 175 0
-15 -172 176 0
-15 -173 177 0
-173 176 0
-174 177 0
-15 -174 0
-3 49 0
-175 49 0
-3 -175 50 0
-3 -176 51 0
-176 50 0
-177 51 0
-3 -177 0
-4 52 0
-49 52 0
-4 -49 53 0
-4 -50 54 0
-50 53 0
-51 54 0
-4 -51 0
-5 55 0
-52 55 0
-5 -52 56 0
-5 -53 57 0
-53 56 0
-54 57 0
-5 -54 0
-6 58 0
-55 58 0
-6 -55 59 0
-6 -56 60 0
-56 59 0
-57 60 0
-6 -57 0
-7 61 0
-58 61 0
-7 -58 62 0
-7 -59 63 0
-59 62 0
-60 63 0
-7 -60 0
-16 64 0
-61 64 0
-16 -61 65 0
-16 -62 66 0
-62 65 0
-63 66 0
-16 -63 0
-17 67 0
-64 67 0
-17 -64 68 0
-17 -65 69 0
-65 68 0
-66 69 0
-17 -66 0
-23 70 0
-67 70 0
-23 -67 71 0
-23 -68 72 0
-68 71 0
-69 72 0
-23 -69 0
-24 73 0
-70 73 0
-24 -70 74 0
-24 -71 75 0
-71 74 0
-72 75 0
-24 -72 0
-25 76 0
-73 76 0
-25 -73 77 0
-25 -74 78 0
-74 77 0
-75 78 0
-25 -75 0
-26 82 0
-76 82 0
-26 -76 83 0
-26 -77 84 0
-77 83 0
-78 84 0
-26 -78 0
-27 85 0
-82 85 0
-27 -82 86 0
-27 -83 87 0
-83 86 0
-84 87 0
-27 -84 0
-28 88 0
-85 88 0
-28 -85 89 0
-28 -86 90 0
-86 89 0
-87 90 0
-28 -87 0
-29 91 0
-88 91 0
-29 -88 92 0
-29 -89 93 0
-89 92 0
-90 93 0
-29 -90 0
-30 94 0
-91 94 0
-30 -91 95 0
-30 -92 96 0
-92 95 0
-93 96 0
-30 -93 0
-18 97 0
-94 97 0
-18 -94 98 0
-18 -95 99 0
-95 98 0
-96 99 0
-18 -96 0
-19 100 0
-97 100 0
-19 -97 101 0
-19 -98 102 0
-98 101 0
-99 102 0
-19 -99 0
-20 103 0
-100 103 0
-20 -100 104 0
-20 -101 105 0
-101 104 0
-102 105 0
-20 -102 0
-21 106 0
-103 106 0
-21 -103 107 0
-21 -104 108 0
-104 107 0
-105 108 0
-21 -105 0
-22 109 0
-106 109 0
-22 -106 110 0
-22 -107 111 0
-107 110 0
-108 111 0
-22 -108 0
-31 115 0
-109 115 0
-31 -109 116 0
-31 -110 117 0
-110 116 0
-111 117 0
-31 -111 0
-32 118 0
-115 118 0
-32 -115 119 0
-32 -116 120 0
-116 119 0
-117 120 0
-32 -117 0
-38 121 0
-118 121 0
-38 -118 122 0
-38 -119 123 0
-119 122 0
-120 123 0
-38 -120 0
-39 124 0
-121 124 0
-39 -121 125 0
-39 -122 126 0
-122 125 0
-123 126 0
-39 -123 0
-40 127 0
-124 127 0
-40 -124 128 0
-40 -125 129 0
-125 128 0
-126 129 0
-40 -126 0
-41 130 0
-127 130 0
-41 -127 131 0
-41 -128 132 0
-128 131 0
-129 132 0
-41 -129 0
-42 133 0
-130 133 0
-42 -130 134 0
-42 -131 135 0
-131 134 0
-132 135 0
-42 -132 0
-43 136 0
-133 136 0
-43 -133 137 0
-43 -134 138 0
-134 137 0
-135 138 0
-43 -135 0
-44 139 0
-136 139 0
-44 -136 140 0
-44 -137 141 0
-137 140 0
-138 141 0
-44 -138 0
-45 142 0
-139 142 0
-45 -139 143 0
-45 -140 144 0
-140 143 0
-141 144 0
-45 -141 0
-33 148 0
-142 148 0
-33 -142 149 0
-33 -143 150 0
-143 149 0
-144 150 0
-33 -144 0
-34 151 0
-148 151 0
-34 -148 152 0
-34 -149 153 0
-149 152 0
-150 153 0
-34 -150 0
-35 154 0
-151 154 0
-35 -151 155 0
-35 -152 156 0
-152 155 0
-153 156 0
-35 -153 0
-36 157 0
-154 157 0
-36 -154 158 0
-36 -155 159 0
-155 158 0
-156 159 0
-36 -156 0
-37 -159 0
